648
Lattice="18.642871011924584 0.0 0.0 0.0 18.642871011924584 0.0 0.0 0.0 18.642871011924584" Properties=species:S:1:pos:R:3:forces:R:3 energy=-131.3567338705445 stress="0.013583748369731313 -3.246097509320778e-05 -0.0006339936730807664 -3.1997874947465945e-05 0.016501667275975324 2.4618155303981305e-05 -0.0006335355169999508 2.4359048145845223e-05 0.016034983742346746" pbc="T T T"
O        8.67690851       7.08246640      -0.69286908       0.29327117      -0.06542714       0.12452560
H        7.81915057       6.76037464      -0.38974088      -0.05301867       0.04161844      -0.09984759
H        8.72424505       6.80799772      -1.61094171       0.10196704      -0.22132139       0.07587582
O       -0.10915662       8.25881153       6.86136829       0.62843460       0.00992875      -0.23404698
H        0.43991877       7.82309149       7.53272126      -0.13004242      -0.07573260       0.01036734
H        0.22186339       7.88785411       6.02166640      -0.22933456       0.22717090       0.12145919
O        8.38803196      -0.09553893       6.81613917      -0.08735251      -0.06012294       0.02546928
H        9.32665464       0.10236815       6.73058694      -0.02128612       0.18498794      -0.12592423
H        7.94416717       0.57653296       6.27408614       0.11615438       0.03375509       0.16904812
O        6.62130125       1.84306680      -6.92981142      -0.48037286       0.08469945      -0.28044879
H        5.86439331       2.41600555      -6.70519649       0.39335292      -0.34581047       0.15030434
H        6.17441747       1.04581085      -7.27823443       0.15908307       0.08988478       0.19136175
O        7.11569951       5.77319282       2.33465275       0.12659760      -0.35209823       0.05198829
H        6.39096471       6.11513041       2.86377512      -0.18323312       0.18145053       0.54672256
H        7.03409900       6.28391681       1.52496845       0.09832045       0.04851781      -0.24715666
O       -2.44151668      -8.49823830      -2.49623659       0.16554320       0.21823073      -0.21262531
H       -1.67506942      -8.36872199      -3.06744051      -0.04363109      -0.11131101       0.14846701
H       -2.79346694      -7.60211802      -2.40178105      -0.03830349       0.06278222       0.06639853
O       -8.04138055      -3.62286243       2.29248229       0.22680463      -0.00914115       0.18444618
H       -8.11095323      -4.24989151       3.02790881       0.11032480       0.00892164       0.16700491
H       -7.61170241      -2.85262672       2.71161755      -0.11810862      -0.29434225      -0.31781570
O       -1.47932598       8.24030177      -8.26207038      -0.00895709      -0.04065205       0.40990029
H       -2.09187690       8.70168887      -7.67388892       0.00156713       0.40342944       0.04264426
H       -0.70054959       8.81910010      -8.32371033      -0.02863012      -0.19054267      -0.06388316
O       -3.72862737      -2.77978913      -2.32005970      -0.35668668       0.27057838       0.16537081
H       -4.63994880      -2.43672275      -2.39316550       0.11875670      -0.06618502       0.04815816
H       -3.72994923      -3.17133671      -1.43170424      -0.04575090      -0.32130635      -0.02642036
O       -6.47361033      -5.26685916       0.41475481      -0.23804300       0.20378118       0.03644349
H       -6.58095580      -4.79931537      -0.42539350       0.11185920      -0.24733852      -0.04968417
H       -7.02216342      -4.74606303       1.01909036       0.03931144       0.15092088       0.19589469
O        9.26401162       5.37177408       4.06231211       0.56807946       0.59935499      -0.14082965
H        8.65823081       5.44965003       4.81868838      -0.14453615      -0.37699903       0.00711888
H        8.73726918       5.67214469       3.31016342      -0.45618309      -0.24925835      -0.11763423
O        1.82033135       4.28947966      -7.00343748       0.04389563      -0.18081766      -0.13143496
H        1.70870783       5.20892008      -6.70501684       0.09713794      -0.10814824      -0.00162017
H        2.40901705       3.85383843      -6.37420708      -0.22242567       0.14809464       0.01727430
O        1.95952514       6.84440489       8.34979656       0.17478379      -0.00550645      -0.06932709
H        2.49841180       7.20652360       9.06838421      -0.20208350      -0.35190762      -0.01631517
H        1.82133225       5.90441984       8.58065509       0.32849734       0.36989989      -0.02400677
O        5.40855765       4.40223832       7.93952920       0.14645744       0.05962301       0.12444441
H        5.52585416       3.44514260       7.77861977      -0.29836583       0.27960951       0.06568828
H        4.76001891       4.71518877       7.29026575       0.01336409      -0.41065919      -0.12659666
O        3.23116005       2.93116159      -1.08105985       0.09994113      -0.47194478      -0.02737520
H        3.92606070       3.21320732      -1.69350484       0.00191548       0.49019187       0.15270426
H        3.01081810       3.68883762      -0.51436139       0.01374723      -0.07211391      -0.19844815
O        7.46792668       5.27250860       6.11654872       0.07764526       0.30590707      -0.74950544
H        7.99693710       5.56841715       6.87164537      -0.48700783      -0.20774753       0.08542085
H        6.95787258       4.48331522       6.34283391       0.36931006       0.48061548       0.50099092
O       -8.85933127       7.02369741      -6.63847467      -0.22664618      -0.16352552      -0.38365730
H       -8.36141931       6.36410903      -7.14491545      -0.01530425       0.17790830       0.24929023
H       -9.50841208       7.32484727      -7.30873898       0.10470790      -0.01180806       0.25009032
O       -4.53462558       3.54124432       8.01503640      -0.07982177      -0.03053143       0.28328207
H       -5.16049203       4.22213650       7.73474374       0.29220350      -0.05873031       0.04741015
H       -4.25850961       3.81655496       8.89937777      -0.05996562       0.24211654      -0.20603607
O        4.80587606      -1.37197035       4.02525417      -0.40019264      -0.09222370       0.17524312
H        5.48410991      -0.68725630       4.01912816      -0.00920407      -0.23898450       0.15187538
H        4.19439500      -1.10609528       3.33784657      -0.18748283       0.11081999      -0.55905169
O       -2.12592390      -2.00234620      -8.60751671       0.03563166      -0.23301096       0.15218769
H       -2.49354281      -2.32473286      -7.77037390      -0.13797812       0.28336191      -0.41288865
H       -2.65839310      -2.44166964      -9.30209431       0.06213789       0.05725979       0.42313616
O        1.96228772       4.92687357       0.48966539       0.25469271      -0.44500235      -0.36526336
H        2.54377448       5.26075832       1.19530985      -0.04923915       0.02523448      -0.08974532
H        2.07105480       5.59402393      -0.19652544      -0.34739271       0.24491536       0.01653645
O       -6.83348950      -5.27857590      -2.35947207      -0.07043819       0.37243939       0.22464345
H       -7.39006857      -6.02694233      -2.10016984       0.22164760      -0.38038359      -0.49549851
H       -6.41422992      -5.46481142      -3.21931814      -0.40241365      -0.24214622       0.40239193
O       -8.52605218      -7.58984280      -1.68949781       0.11314403       0.22924518      -0.15400497
H       -8.08828978      -8.43400461      -1.51882961      -0.04544122      -0.15443655      -0.05575200
H       -9.38698980      -7.83923165      -2.04565277       0.02294144      -0.09598325       0.17846034
O       -6.92492635      -1.11712312      -5.17203266       0.19445600       0.25114813      -0.20127967
H       -6.36553759      -1.66196536      -5.74765697      -0.02018325      -0.05416619      -0.03289087
H       -6.53650246      -0.23020324      -5.32562360      -0.25043808      -0.12658894       0.12995794
O        6.33435851      -9.34027757      -6.42573251       0.27475591      -0.09098723       0.15634738
H        7.02143697      -9.68108503      -7.01470499      -0.02443496      -0.01336148      -0.26596589
H        6.81513442      -8.67062716      -5.91516349      -0.17269171      -0.01336799      -0.01510692
O       -2.42949180      -5.94543660       2.70888909      -0.00074071       0.25775412      -0.05366098
H       -1.60851399      -5.47245828       2.49503185      -0.46012535      -0.05474860      -0.07445864
H       -3.14627632      -5.28644542       2.62106440       0.43258464       0.04511246       0.20455667
O        0.62475736      -6.07864477       5.85857771       0.29758620      -0.06822513       0.36070486
H        0.88294903      -6.09305907       4.91760784      -0.17667740      -0.07772532       0.25752054
H       -0.31654663      -5.83843233       5.83839285       0.00876004       0.15310236      -0.38093233
O        5.18332216      -2.26025610      -0.15118063      -0.34579709       0.31550912      -0.26495715
H        5.81019730      -2.77403941      -0.67889070       0.24386056       0.27541287       0.39557008
H        5.67850903      -1.69270477       0.45274121       0.10667724      -0.40503325      -0.24554836
O        0.54061399       7.63888543       4.04812655      -0.28922285      -0.09443936       0.62029367
H       -0.05479320       8.13179266       3.45799506       0.24250168      -0.24477615      -0.06757899
H        1.42440591       7.74667225       3.68378755       0.18428990       0.35646354      -0.06941174
O        3.12060525       8.89578587       6.52027317       0.18671302      -0.05345008      -0.23558039
H        3.50412098       8.60328101       7.35289239      -0.06636142       0.13712982      -0.09932217
H        2.17448599       8.92878788       6.68237737      -0.11012842      -0.02590517       0.15089913
O        7.31780569      -8.34096446      -2.46609361       0.36480234      -0.06623067      -0.03918104
H        6.56393388      -8.18204697      -3.04207709       0.00724391       0.00380857       0.45712616
H        6.98485600      -8.35964614      -1.54967979      -0.26598193       0.12221364      -0.17422391
O       -7.53082568       1.05496380       5.00687492      -0.08776271      -0.11702841       0.29837549
H       -7.56189531       1.95785295       4.63487671       0.18603708      -0.62346234      -0.22429607
H       -7.93744876       0.45216304       4.36150682       0.01558751       0.40486331      -0.23058523
O        4.44783894       2.68636142      -5.42284762      -0.11150609       0.22599531      -0.07573943
H        4.60324647       3.07002191      -4.55856632       0.04867517       0.33762308       0.02658812
H        4.38453936       1.74647474      -5.19434273      -0.08308323      -0.36633554      -0.16316383
O        8.41515594      -8.62352345       1.78944113      -0.46054239       0.20284493      -0.18346914
H        8.34499142      -8.01142006       2.53676358       0.14235011      -0.00115848       0.19965004
H        8.50247463      -9.50756100       2.17460251       0.20851434       0.24305311       0.16172100
O       -8.13303786       1.75603985      -3.08867433      -0.04255896       0.11386045       0.13122687
H       -7.23308992       1.81904127      -2.73134239      -0.18112776      -0.30481372      -0.44509279
H       -8.07503530       1.78659099      -4.05580394       0.04686822       0.11813761       0.36372265
O        2.77072344      -5.70225631       7.75541450      -0.14304072       0.14043220       0.12190683
H        3.29136887      -5.06799260       7.23523658       0.02209661      -0.09047390       0.14350571
H        1.99009541      -5.82381484       7.19666906       0.11003205      -0.24113354      -0.11491573
O        3.63701119      -6.96068418       5.32876703       0.47441368      -0.05652642      -0.35376755
H        3.35234087      -7.57924008       6.01253347      -0.09135906       0.14287197      -0.26487089
H        2.88081483      -6.79548591       4.75608860      -0.20949311      -0.09868931       0.12097700
O        6.87911832      -4.16188521      -1.78221597      -0.10770502       0.10774554       0.22141184
H        7.55778525      -4.80954127      -2.00785905      -0.24574039       0.29903062       0.08287055
H        6.60593676      -3.76959462      -2.62936729      -0.00470359      -0.35847800       0.06965103
O       -4.45130632      -4.11099697       3.39670887      -0.07492496       0.25785076       0.00006036
H       -4.99999676      -3.34803391       3.14589491       0.14817762      -0.16412713       0.23823814
H       -4.80280519      -4.39563433       4.25915129      -0.04527863      -0.02800750      -0.52375432
O        8.26072761      -0.47112496      -2.57250575      -0.67782631       0.04454063      -0.37916240
H        8.78523099      -1.25189571      -2.34221819       0.36475470       0.71164579      -0.06396029
H        8.77555292       0.35020713      -2.64399296       0.42418608      -0.79448933       0.14768234
O        4.74069886       1.63107070       4.89001530      -0.02974260      -0.32504173       0.40401764
H        3.97769453       2.16374751       5.14030932      -0.14654568       0.11697123      -0.28268429
H        5.17160989       2.13613319       4.18611256       0.07983913       0.18693951       0.18197586
O       -3.50346202      -5.79183218      -2.18477064      -0.41945309      -0.47444737      -0.24136645
H       -4.03044438      -5.76644183      -1.38266182       0.03793508       0.20413148       0.16760944
H       -4.16722005      -6.01283825      -2.85656382      -0.00633748       0.12845188      -0.27137993
O       -2.83762819      -0.25203605      -1.83589993      -0.25002027       0.10539757      -0.41547668
H       -2.15808481      -0.03717940      -1.19141531       0.13840187      -0.03322241       0.35109948
H       -2.88129099      -1.21732979      -1.86860419      -0.21958995       0.05690918       0.24312018
O        1.13939546       1.13299808      -2.09197706      -0.05865289      -0.09424021      -0.37428524
H        1.94697240       1.51074144      -1.72309977      -0.21317416       0.27030030       0.09588625
H        0.44256392       1.53109967      -1.54952048       0.39052351      -0.05684348       0.16508318
O       -0.55840000       4.58437003      -2.77841108      -0.25381146       0.06691844       0.12699838
H       -0.06542146       3.93163948      -3.28416852       0.08295797       0.10830159       0.04764953
H       -0.07957790       4.72734393      -1.96092982       0.22959201      -0.16591490       0.04374518
O       -6.41665003      -1.70607540      -2.49214396       0.40053198       0.56974451      -0.01022232
H       -7.21828544      -1.94571893      -2.00461402      -0.00255355      -0.14444707      -0.43177139
H       -6.69186154      -1.32872218      -3.35476676      -0.11834216      -0.56443498       0.46522289
O       -2.76763503       2.56026426      -0.67803808       0.29898799      -0.24303911       0.12854840
H       -2.90318235       3.46704333      -0.38342677       0.05360879      -0.07430041       0.19718368
H       -2.97467147       2.59241484      -1.62526449      -0.00353869       0.05847130      -0.06985549
O        6.71089696      -4.82941269      -8.38652988      -0.13162302       0.17034329      -0.25674640
H        6.59209047      -5.10277555      -7.45625950       0.02603980      -0.05656025      -0.42602348
H        6.57933311      -5.60381183      -8.95631787       0.01191591      -0.02155171       0.44579353
O       -8.48559377      -0.41759156       2.80471279      -0.18272074       0.27608713       0.19014631
H       -8.42823039       0.31965831       2.18531229      -0.11861106      -0.03711944      -0.18957911
H       -9.38410204      -0.75607052       2.66706507       0.20012988       0.11647311      -0.21261155
O        2.96885975      -0.89084904       6.07068689       0.01067548       0.21163040      -0.18824450
H        2.08505995      -1.00137977       5.67787939      -0.05967736      -0.13266653       0.21730396
H        3.48587226      -0.76077502       5.25878698       0.44461121      -0.18725462       0.38020535
O       -6.07146344      -1.64309096       7.96332125       0.61951262      -0.25107104      -0.07121053
H       -6.68580528      -2.37765680       7.84391014      -0.24307891       0.07855033       0.54211947
H       -6.19144526      -1.20380130       8.82241968      -0.40301394      -0.24185144      -0.33955054
O       -3.75368068      -3.37589035       8.31098517       0.04520631      -0.12107665      -0.04320868
H       -4.65907725      -3.01794691       8.38836924       0.50079729       0.11219215      -0.50362971
H       -3.41919854      -3.16948137       7.41687680      -0.35925530       0.05035252       0.31105988
O       -1.13435273      -0.32530758       0.36636669       0.35584673      -0.24643042       0.24225889
H       -0.49583096      -1.01957652       0.12503816       0.25231922       0.50167281       0.08280777
H       -0.65693649       0.29727468       0.94312200      -0.11394677      -0.42905318      -0.43378561
O        0.91820963      -8.29349337       1.43375048       0.00074161       0.40027600      -0.03132606
H        0.16300734      -8.74732753       1.84960614      -0.08866216       0.15904775      -0.45890784
H        0.54901586      -7.53525275       0.93317718      -0.04792872      -0.44357131       0.14362273
O        1.56655442      -6.45546170       3.35263153       0.14734687      -0.03880360      -0.13752988
H        1.35937689      -7.16691224       2.70179436       0.19227143       0.72096646       0.36055788
H        1.61551916      -5.62345951       2.85688236      -0.01637987      -0.45913343      -0.08532576
O        0.56703647      -1.37538826       4.84825953      -0.12799048      -0.01961751       0.22581553
H        0.09206233      -0.66357760       5.32065339       0.04831631      -0.68242108      -0.38339338
H        0.41373483      -2.23002042       5.29369901       0.09716612       0.72277699       0.13169293
O        1.11300836       1.02030721      -9.25933875      -0.13082299      -0.47550974       0.14165048
H        1.46516536       0.57736424      -8.46437474      -0.07055838       0.26253125       0.30813097
H        0.24535759       0.59188435      -9.30484180       0.03800418       0.26294383      -0.15095451
O       -1.84254619       2.33844272      -5.36674534      -0.18585954       0.05709518       0.26414820
H       -1.58212239       2.56106009      -6.27061086      -0.12346661      -0.16147646      -0.07418534
H       -2.21110760       1.44017957      -5.36684613       0.17923471       0.01745489      -0.15746062
O        2.46715602      -2.81700958      -6.43874007      -0.16905802       0.35529696      -0.19250996
H        2.86062415      -3.09161123      -5.61548719       0.36443762      -0.23858959      -0.02148696
H        2.91441342      -3.25861610      -7.17050277       0.22523625      -0.01521082       0.05732214
O       -2.19760922      -3.09184484       5.93614471      -0.16408141      -0.01826354       0.24247170
H       -1.27155220      -3.12656557       6.20738108       0.10034088      -0.00879274       0.11688523
H       -2.23504026      -2.42783835       5.23791482      -0.16100150       0.36074601      -0.02854584
O        5.86266308       5.01006237      -6.84645367      -0.10815501       0.04685367      -0.19977091
H        5.54645779       5.91972744      -6.74195285      -0.07426953      -0.34133179       0.34371209
H        5.08692880       4.46139976      -6.65743205       0.27495697       0.22000645       0.03868078
O       -3.42285164       4.85775061       0.74067781       0.39748929      -0.00706578      -0.25753147
H       -3.95066714       4.47203780       1.45707032       0.07953601       0.15486674      -0.01570979
H       -3.98746320       4.95969011      -0.02832033      -0.51895721       0.12389255       0.39147831
O       -2.29163436      -2.36783739       2.09961974       0.11496923       0.18881886       0.33990302
H       -2.58407292      -1.85597882       2.88150449      -0.02830991      -0.02490137      -0.40865068
H       -1.89406617      -1.70649581       1.51230751      -0.36443411       0.12615409       0.23764985
O        0.29865145       4.90255620       3.80722950      -0.17201115      -0.53432988       0.13967978
H        0.30229966       5.82711326       4.07964987       0.14528341       0.31595983      -0.19242639
H        1.16897666       4.56170726       4.03183256      -0.13840557       0.03561581       0.01371383
O        2.92759824      -3.66233051      -3.58846395      -0.03595278       0.26050916      -0.23424807
H        3.01500220      -3.92172597      -2.65961664      -0.00730232      -0.26970354       0.17787287
H        2.35654443      -2.87618656      -3.51941015       0.22843294       0.32200055       0.04972036
O        1.13730122      -4.05450719      -9.09021482       0.01061127      -0.45423208       0.34559946
H        2.08172524      -4.21456419      -9.18915601       0.27039261       0.25876896      -0.28364045
H        0.87718431      -4.92501163      -8.72952603      -0.20146398       0.36643183      -0.11357850
O       -4.98321993      -1.96649699      -7.10039134       0.40559437      -0.06097804       0.22017047
H       -5.17936812      -1.20535401      -7.66569989      -0.29756359      -0.18935131       0.03004593
H       -5.08464919      -2.74512637      -7.65975383      -0.50035916       0.11821875      -0.02737101
O        4.73658277       1.47252396       0.71841819       0.30078464       0.01588409      -0.13262445
H        4.25919432       1.98358799       0.04636990      -0.39789042      -0.05375098       0.31725158
H        4.11709000       0.80520935       1.05969931      -0.14240886       0.25573441       0.09087387
O        1.41819647      -0.16415362      -6.74941353       0.15510659       0.14012930      -0.01752259
H        1.21942949       0.39415546      -5.97228220       0.12964292      -0.18362297      -0.19721192
H        1.95061074      -0.88785176      -6.39327199      -0.24664489       0.13237029      -0.04629919
O       -7.08066786      -8.52929313       4.10483833      -0.53449659      -0.16189187       0.22273052
H       -7.06954351      -8.05996906       3.26474327       0.14775279       0.09455771      -0.16759541
H       -6.17466829      -8.53643227       4.43546611       0.17896684       0.01660536      -0.34599218
O        8.36293199      -6.46807871       3.75960252      -0.10875512      -0.35547709      -0.62631745
H        9.22801095      -6.13639482       4.07070544      -0.70141299       0.15922040       0.19600684
H        7.67959363      -6.21832360       4.40138576       0.53432129       0.10301737       0.29809987
O       -4.31294055       4.03742481       3.29998033       0.01855985      -0.12902324      -0.39058187
H       -3.76200886       4.14484152       4.08865673       0.00857728       0.16102935      -0.04376011
H       -5.16367520       4.45172405       3.49795289       0.13446967      -0.06196524       0.28999881
O        5.56485418       1.75414025       7.53427583       0.45144685       0.35909675      -0.41391950
H        5.03535502       1.16453365       8.08276881      -0.41341879      -0.35451521      -0.15069287
H        5.33114108       1.58529573       6.59929920       0.07801239      -0.14762401       0.35585453
O       -0.73397472       1.11410766       4.88138166      -0.12399592      -0.36778666       0.06867854
H       -0.24519688       1.54436833       4.16149965      -0.01268829       0.14267795       0.32298942
H       -0.95171593       1.78277097       5.54083546       0.24732710       0.01944844      -0.29579389
O        6.81792558      -9.24356695       4.47269129       0.07590227       0.04188495       0.01243959
H        6.84397066      -9.07141931       5.43477767       0.09348224      -0.17932189      -0.42576336
H        7.67857963      -9.64819143       4.26136293      -0.01382370       0.31385828       0.30691371
O        2.69433487      -3.68048286       1.94999095      -0.26824996      -0.14400468       0.27794960
H        3.34136383      -3.85781788       2.65744321      -0.09175308      -0.06668552      -0.42886227
H        3.09988632      -3.96981803       1.12397511       0.18518862       0.22925403       0.27179261
O       -1.36737365      -5.75652885      -5.50494962       0.03414961       0.48683968       0.26410105
H       -2.25446537      -5.41946608      -5.31319645      -0.28324900      -0.26411721       0.04364673
H       -0.92421539      -4.89742116      -5.57040431       0.43134102      -0.00868171      -0.25928911
O       -3.63870080      -8.08841326       1.36989210       0.14083245       0.46925800       0.24732787
H       -3.11267335      -7.42315831       1.87093571      -0.18916136      -0.37315279      -0.38152551
H       -4.31032699      -7.54567904       0.93627239       0.12059073      -0.20652860       0.24790375
O        5.71160152       6.93290146       4.52976658      -0.05799084      -0.02618824      -0.07124131
H        5.85715184       7.88783251       4.34792159      -0.00827283      -0.39875659       0.26520102
H        6.43716042       6.70745163       5.13211985      -0.20003789      -0.11500064      -0.06003898
O        8.11612922       8.26666059      -8.44479091      -0.39803478       0.04521666       0.14775457
H        8.58467303       8.93427061      -8.98186687      -0.15923592      -0.45750108       0.21065884
H        7.56040459       7.75248375      -9.06035587       0.41733720       0.45467818       0.12068832
O       -5.11320683      -0.35876156       5.80742191       0.12985906       0.09945172      -0.32481645
H       -5.93546858       0.10492524       5.58206447       0.04777931       0.19300718       0.31762797
H       -5.35550127      -0.99467866       6.50020073      -0.29509652       0.26692109       0.09578908
O        0.33260356       2.56345113       0.11067536       0.15699577      -0.51534929      -0.05565323
H       -0.61795937       2.55087517      -0.06210688       0.06174135       0.76376010       0.14336100
H        0.69255306       3.46021954       0.16008099      -0.54608042      -0.02651297       0.02945607
O       -6.03096925      -7.66475294      -8.88437769       0.54577160      -0.37287010       0.16605249
H       -6.97169422      -7.89487276      -8.89618194      -0.28078166       0.32727861      -0.13604520
H       -5.68060436      -8.52888423      -8.55294951       0.01478286       0.46322121      -0.30667800
O        0.79743703      -6.36004283      -7.55759211      -0.21581024      -0.07373455       0.11944248
H       -0.16456975      -6.34044252      -7.44513621       0.02590840       0.00003334      -0.15005209
H        1.09515803      -5.88535436      -6.76906873       0.14009886      -0.20673943       0.13861011
O        5.02724339       7.21536927      -5.16663872       0.09871906       0.07141374      -0.11392989
H        5.60985478       7.85810313      -5.60894032       0.04512002       0.15670191       0.38130172
H        5.49049958       6.98332170      -4.33589429      -0.00749603       0.22054822      -0.43392645
O        1.26917375       6.94575754      -6.80909907       0.10661518       0.45377849      -0.18067864
H        0.48446066       7.14581393      -7.34243354       0.22869644       0.02408847       0.18538355
H        1.72440772       7.81840013      -6.75593350      -0.50457727      -0.79765286       0.21425808
O       -3.18624609      -9.16165371      -6.32244487       0.23229941      -0.22688553      -0.31808133
H       -3.04072591      -8.21949231      -6.20376073      -0.11159191       0.18647739       0.00730102
H       -3.09032806      -9.53256320      -5.44401338      -0.13319839       0.04840075       0.23175709
O       -1.99920075      -5.69247591       5.45430095      -0.00302288      -0.43316787       0.55201962
H       -2.33970071      -4.77531346       5.51984904       0.25701268      -0.54016379      -0.49702249
H       -2.14256201      -6.02202837       4.55194573      -0.28956246       0.53379905       0.06141683
O        6.16715053      -8.58837593       0.18343078      -0.03260594      -0.25090922       0.06396706
H        5.36012744      -8.19205865       0.55881184       0.34238403      -0.15950977      -0.13206258
H        6.77603608      -8.56038113       0.94827984       0.00552141      -0.01882441      -0.62945239
O       -6.27955224       6.03843304       4.05937719       0.01445116       0.04399444      -0.20920929
H       -6.18057345       6.72415268       3.37237536      -0.38005977      -0.02854795       0.32502898
H       -7.21254487       5.77788930       4.02806714       0.28666940       0.16812803      -0.02925652
O        0.13658650      -5.82129603       0.20406126       0.23390275       0.00037751      -0.00911319
H        0.02273144      -5.04911182       0.78779661      -0.15644393      -0.13116457       0.00911183
H       -0.45320148      -5.64063796      -0.55211443       0.25731958       0.12852875       0.14550426
O        3.85646262      -0.06313178       8.61656269      -0.03535300       0.09751706      -0.10508548
H        3.57182253      -0.28719117       7.71045445      -0.30409097      -0.15204878       0.25769398
H        3.06885279       0.28521250       9.05424485      -0.00539962      -0.04182037      -0.45938517
O        7.40152020      -1.35663790       4.45988545       0.22614337      -0.18368455       0.12270929
H        8.01422332      -0.69125123       4.76558961       0.15942471       0.26148858       0.10889519
H        7.46963826      -1.28179081       3.49312776      -0.19333320      -0.04265058       0.04208469
O        9.22978618      -1.61010975      -6.41316972      -0.05277643       0.35931806       0.01799763
H        9.47764613      -2.45699646      -6.80155416      -0.19800384       0.02970215      -0.19396961
H        9.99030519      -1.36124899      -5.87286303       0.29229989      -0.11294382       0.20411449
O       -5.34482714      -5.63064859       7.92839867       0.08186052      -0.40189065      -0.04222546
H       -5.57353980      -6.39155930       8.48723160       0.38508080      -0.04254991       0.22304762
H       -4.43919233      -5.35532471       8.15841030      -0.73420095      -0.07848730       0.00147170
O       -3.65140055       2.95102317      -3.29266050      -0.13491494       0.24209582       0.31158182
H       -4.40340028       2.52216099      -3.71699788       0.37316911      -0.21228370      -0.10911006
H       -2.95739983       3.01864779      -3.96599070      -0.22931074      -0.09706316      -0.10699804
O       -8.78329459      -3.14068537      -1.64492107       0.01485644       0.18744380       0.05689480
H       -8.43949195      -4.00652212      -1.90078009       0.07746323       0.23527408       0.04821496
H       -9.29170713      -3.28153717      -0.83243858      -0.06159753      -0.12815270      -0.15622506
O       -7.35496188       8.26839081      -2.09401446       0.10564701      -0.08461265      -0.11715421
H       -7.81908709       7.73689093      -2.76713402      -0.00885791       0.02511771       0.42037494
H       -6.89244924       7.61526924      -1.54126880      -0.27550954       0.21655100      -0.30441781
O        3.77292076      -0.43970363      -1.92978956       0.26142963       0.03136450       0.18133135
H        4.25471220      -0.98006293      -1.27991191       0.06770670      -0.20379754      -0.07453353
H        3.79759062       0.43700295      -1.54407289       0.02431081      -0.00695449       0.04745503
O        2.20247622       4.10545553       8.95334894      -0.35388309       0.34864911      -0.42188841
H        2.98570906       3.57376546       8.76888311      -0.09072150       0.30119144       0.45137515
H        2.11974577       4.22231306       9.91916687       0.28838836      -0.51048210      -0.11754462
O       -8.73863680      -8.28659849      -8.90656955      -0.13682021      -0.62389667      -0.20992518
H       -9.28057601      -7.54894750      -9.21847505       0.14195731       0.25374891       0.28219911
H       -8.77311877      -8.34367236      -7.93767184       0.03326848       0.46716319      -0.28709362
O       -8.89256999       0.82552432      -7.77879679      -0.02696490       0.06636970       0.08140153
H       -9.07853092      -0.06729102      -7.43208282      -0.39647376       0.27642141      -0.35406653
H       -9.54068741       1.01868446      -8.47432685       0.09804716      -0.30604337       0.26924522
O        9.18350054      -3.43399739      -8.43982636       0.58760118      -0.12592952      -0.10172965
H        9.03905194      -2.57033469      -8.87525464      -0.22498692      -0.34466471       0.12343243
H        8.40237619      -3.94591019      -8.68840090      -0.15714458      -0.02922390       0.30339799
O        1.00333179       9.26493345      -8.31892538      -0.50714980       0.13268626       0.07205657
H        1.18490073      10.18402169      -8.07754902       0.42790441      -0.16416099      -0.20104560
H        1.83143901       8.80181634      -8.48509135       0.10231383       0.71176038       0.00903974
O       -1.83142619       4.88673735       8.20713545       0.19544833      -0.04555034      -0.58475704
H       -2.44805245       5.30370276       8.81965397       0.12822250      -0.04770035      -0.01035091
H       -1.18207718       4.40360389       8.71549481      -0.19724909      -0.01428714       0.44516955
O       -4.00755984      -3.95468938       0.40508355       0.24495074       0.12642725      -0.37137925
H       -3.68461862      -3.31730504       1.05750367       0.06899686      -0.20577692       0.13895356
H       -4.72599419      -4.43512168       0.83302414      -0.08876563       0.19758652      -0.03012858
O        3.51895388      -7.59200048      -9.01195941       0.17481666      -0.06258656      -0.01003167
H        3.42000160      -7.27299440      -8.09915471       0.23616144       0.20876106      -0.19080633
H        3.24637637      -6.84256061      -9.57527951      -0.19916010      -0.17489244      -0.02159304
O       -7.59986948      -7.76746199       1.26437628       0.16059494      -0.30809193       0.29454488
H       -7.49643581      -6.94842700       0.76243137      -0.06321109      -0.20331303       0.00924004
H       -8.52617129      -8.04182064       1.16134836       0.22391248       0.25662353      -0.06307969
O       -5.43629683       7.07701674      -5.74784097       0.21178895      -0.02316193      -0.12164201
H       -4.48976797       6.83368862      -5.74876867      -0.32891187       0.08811570       0.08256279
H       -5.89354594       6.22104867      -5.68144137       0.11391337       0.26278402      -0.21758451
O       -9.00345999       1.88681601       0.96927287       0.05080050       0.01213899      -0.08289330
H       -9.87742357       2.11188436       0.61341982       0.41648719      -0.30266338       0.06691298
H       -8.46522583       1.71020382       0.17934514      -0.29806606       0.16621875       0.32320550
O       -8.04812082      -5.11392456       4.73917438      -0.45198965      -0.08259699      -0.34907262
H       -7.32558875      -5.68739578       5.03958445       0.08692406       0.37170323      -0.21122744
H       -8.21486264      -4.49547153       5.47171425       0.37348377      -0.36482126      -0.08422615
O       -4.37895908       1.70281550      -7.74846606       0.24801642       0.02833499       0.29333313
H       -3.55849341       1.25925842      -8.00035550       0.04423429      -0.06192614      -0.14108987
H       -4.14214428       2.63541369      -7.76105813      -0.07708606       0.34973329      -0.02249612
O       -3.98571004      -6.22654662      -6.92159688      -0.02868793       0.04642754       0.77222958
H       -3.11836285      -6.08232614      -7.33521254      -0.53999671      -0.39703221      -0.39394713
H       -4.60154278      -6.65901441      -7.52089230       0.44132431       0.06557391      -0.43165605
O        8.24717554       5.11366669      -8.84339964       0.28023299      -0.10501220       0.05722246
H        7.46197377       5.08471874      -8.27702421       0.10392968      -0.31825907      -0.39265227
H        8.35044726       4.21706671      -9.22476343      -0.50583959       0.44503425       0.33220022
O        1.59702863      -1.80626728      -0.32095672      -0.05376531      -0.05882108      -0.01150819
H        1.98473118      -1.47566154      -1.14524387      -0.14737772       0.07600372      -0.02380867
H        1.73599315      -2.76197465      -0.39500931       0.20051809       0.37168046       0.15067072
O        1.48000101      -1.40281736      -3.30896175      -0.72201390      -0.02938450       0.26529532
H        1.31986441      -0.46942677      -3.05955574       0.24106777      -0.62657190      -0.05851667
H        0.58282999      -1.80883197      -3.26673958       0.46870061       0.48005938      -0.15251783
O        3.72547982       5.57559929       6.21552859      -0.12217271       0.04008082      -0.29568604
H        3.31873074       6.25795964       6.75544446      -0.29689743       0.20360077       0.04635742
H        4.20329250       6.05723075       5.52815330       0.27628248       0.29253260      -0.02945305
O       -6.27972832      -9.23948409      -4.46351263      -0.24987369       0.63902609      -0.17351260
H       -5.71416896      -9.98257302      -4.72177566      -0.22797101      -0.17688625       0.18870761
H       -6.68458102      -9.49372312      -3.62164822       0.43825128      -0.23036724       0.04409431
O        4.05232417      -3.36995983       6.90356390      -0.30290254      -0.00759293       0.14379813
H        3.45493936      -2.61580605       6.78682981       0.05235125       0.00170062      -0.27579334
H        4.91396191      -3.00294888       6.67160314       0.21927863      -0.06337257      -0.02733089
O        0.60787271       8.56485317      -3.78043211      -0.03680533      -0.08606682       0.11924068
H        0.50004478       9.52388984      -3.69708152       0.04143237       0.11678420       0.08209805
H        1.28244707       8.49807791      -4.47395103      -0.13908275      -0.06408596       0.00946101
O       -5.67452219       8.37571532      -8.32033822      -0.08129805      -0.05087116      -0.10310228
H       -4.92762494       7.90024218      -8.72450818      -0.04234196      -0.05722148       0.48050604
H       -5.73024391       8.08468962      -7.39191359       0.29426293      -0.16563377      -0.40268977
O       -3.36195321       7.63285327       3.49227051      -0.11218529       0.13981724       0.20249118
H       -4.13554124       7.11138359       3.27564604      -0.05115227       0.07952301      -0.52333459
H       -3.32971690       7.47657646       4.44114739       0.54792147       0.06062704       0.43444946
O       -1.32456867       6.65296409       0.02818588       0.28488161       0.07681877       0.25838321
H       -1.89430251       6.05866386       0.54474644       0.02562870       0.05999233      -0.26202605
H       -1.93099562       7.25453285      -0.42667997      -0.46292107      -0.05240774       0.15067194
O        8.78226575       6.91682701       7.84624177       0.33054896       0.14585903       0.08379055
H        9.66328910       7.33149667       7.84792673       0.06683539      -0.14960007      -0.08448494
H        8.77297283       6.39747305       8.66833561      -0.11494467      -0.05596334      -0.12604781
O       -6.33882507       0.61006240       1.17092680      -0.01281676       0.30988635      -0.02550475
H       -5.63354090       1.13887919       1.59157687       0.13687305      -0.53968222       0.04738586
H       -5.84981346      -0.05207887       0.66774780      -0.03765179       0.21598649       0.20075266
O        5.68670100      -3.53386536      -4.13558005      -0.03712699      -0.09699197       0.06990320
H        4.72557483      -3.47133268      -4.15906439      -0.09353084       0.11967851       0.24412975
H        6.02101788      -2.75595804      -4.60059161       0.00530893       0.23743077       0.09245512
O        3.84069311       6.52234138       1.67253596       0.35901191       0.05091798       0.05326803
H        3.53940641       7.33641398       1.19073538      -0.18218385      -0.15524077       0.50716715
H        3.81393283       6.79813286       2.60419872       0.01547147       0.10519087      -0.17129382
O        3.89766146      -7.03891083      -6.41259650      -0.21074384       0.01192718       0.29330303
H        4.72227059      -6.54445608      -6.29364740       0.06909038      -0.14068822       0.08323922
H        3.25216522      -6.54096588      -5.88566428      -0.03679012       0.13400553      -0.06097813
O        5.45245074       3.91286808      -2.75593592      -0.10540239      -0.54044251      -0.34423935
H        5.92880079       3.22811183      -3.27431457       0.17097347       0.28271360       0.50948112
H        6.09486424       4.63063002      -2.67576929      -0.11485277      -0.01900408      -0.07821282
O       -4.17866104      -8.33144882       4.37185586      -0.25957487       0.42932007       0.28500844
H       -3.74253571      -8.75941175       5.12096428      -0.16729254      -0.17741639      -0.30036330
H       -3.94191232      -8.81613298       3.57412443       0.02429648      -0.26965962       0.18555702
O        7.94663017      -1.35023362       9.24487202       0.24632050      -0.05757830      -0.15336623
H        7.24271448      -1.09410545       9.84658181      -0.13439300       0.29146798      -0.34843517
H        7.99728224      -0.74793256       8.48944832      -0.36800329       0.30818548       0.18710570
O        4.51280254      -4.21401647       3.97471392      -0.28808507      -0.06188156      -0.54798606
H        4.88494213      -3.34234888       4.15440656       0.07201783      -0.02526409       0.41845836
H        4.79576208      -4.83741498       4.65642957       0.10416390       0.35906038       0.26621225
O       -4.30749581       7.38704033      -2.88091754      -0.45854597      -0.05832913      -0.17643852
H       -3.41573921       7.24341901      -3.23630559      -0.06430298       0.10816264       0.26450260
H       -4.14398208       7.82454391      -2.03364793      -0.03370930      -0.07127922      -0.05943988
O        2.88249957      -0.40247711       1.92672578      -0.23132739      -0.11761482      -0.36008747
H        2.53265026      -0.90352039       1.16189530       0.13845901      -0.14311748       0.42469376
H        2.08792702      -0.22140664       2.45289062       0.36458408       0.19920673      -0.23967147
O        7.97223013       1.59799725       4.54626107       0.03165451      -0.30167836       0.16034873
H        7.50621786       1.84369360       3.72958749       0.29810287       0.16505475       0.41457928
H        8.82215206       2.05049656       4.55942775      -0.35510085       0.03497281      -0.38225003
O        2.66251876      -4.51410690      -0.88118168      -0.04545495       0.19249422       0.01187210
H        1.80733324      -4.84500733      -0.59346151      -0.16547522      -0.55759061       0.03172117
H        3.33027676      -5.12083376      -0.48132774      -0.16990835       0.35520331      -0.31394374
O        0.74576429       1.68202640      -4.79611221      -0.26786464       0.22831384       0.12148944
H        0.85028131       1.56330392      -3.83619535      -0.09890031      -0.09942797      -0.27526831
H       -0.20920482       1.86990702      -4.93129910       0.57016354      -0.15982393       0.26785057
O        4.56194572      -0.04365405      -4.68738887      -0.21789048       0.16703895      -0.03020316
H        5.37060327      -0.53857403      -4.89772414       0.17948401       0.18706238       0.33906680
H        4.40794152      -0.20458410      -3.73988336      -0.09722707      -0.14766182      -0.25830769
O        7.10707825       0.47535261      -0.25449859      -0.05283478       0.33478709      -0.17871931
H        6.99969046       0.09394884      -1.13666714       0.21505503       0.13164664       0.13747232
H        6.33892954       1.04143368      -0.11084065      -0.21349721      -0.29095631       0.02087184
O       -2.54512823      -0.21153313      -4.51910423       0.42373892      -0.00247372      -0.17209881
H       -3.18985101      -0.83828815      -4.86271968      -0.12234749       0.15552798       0.43661742
H       -2.62277292      -0.15573962      -3.54341360      -0.42566193      -0.00839575      -0.50322547
O       -8.55677686       4.52949480      -2.36251851       0.42491905      -0.25241495      -0.17898208
H       -7.63637148       4.34603114      -2.09527568      -0.53444003       0.44812034      -0.07209108
H       -8.79468915       3.69453209      -2.79341029      -0.02011824       0.03827282       0.13449352
O       -2.81976443      -0.70811826       4.43034027       0.52615713      -0.59041704      -0.03689531
H       -2.09992854      -0.06768823       4.53422326      -0.20382320       0.17759872       0.08563228
H       -3.51513030      -0.42177295       5.04075107      -0.01058655      -0.03133264      -0.33570862
O        6.94209434      -1.27651393      -4.90260499      -0.42852648       0.02891810      -0.16060487
H        7.48514791      -0.85096589      -4.22466880       0.16588562      -0.19781214       0.08034042
H        7.52568666      -1.43853027      -5.65591586       0.37305542       0.13124657       0.10282370
O       -5.38072764       6.57058491       6.74977282       0.10277968      -0.14871841      -0.02327402
H       -4.41247474       6.66125829       6.81618512      -0.36753396      -0.05700404      -0.53814801
H       -5.59209233       6.38642463       5.81801318       0.31241136       0.11412889       0.32047243
O        7.67856544       2.38350044       9.16153242       0.29166638      -0.01545564       0.24312357
H        7.30506624       2.38905122      10.05934305      -0.24870901      -0.21418883      -0.29447234
H        6.96807790       2.10784471       8.55170655       0.24693632       0.13032813       0.38363750
O       -3.49206707      -3.76765873      -4.99606826       0.41582143      -0.11925027      -0.10959792
H       -3.62088746      -3.61903667      -4.04904759      -0.22495268       0.05769432      -0.07311950
H       -4.31061250      -3.53099439      -5.44473953       0.12243061      -0.04183810       0.32026254
O       -9.34225260       8.33381359       3.71010900      -0.14250553      -0.10712341       0.10234210
H       -8.47194015       8.75639572       3.73880472       0.16045118       0.11104110       0.09086834
H       -9.15778090       7.40730569       3.88069839       0.11115051      -0.05007061       0.06163277
O       -0.95041124      -5.15915991      -2.19622412      -0.18485136       0.03880255      -0.05992705
H       -1.91686990      -5.21366246      -2.30066865       0.05693881      -0.11124154       0.11809559
H       -0.75604799      -4.32043295      -2.63337945       0.13566596       0.17771923      -0.08586271
O        5.05574746      -7.99698068       2.58787909      -0.21812801      -0.05027169       0.09258545
H        5.85283115      -8.29244433       3.05146632      -0.24866061      -0.03287456       0.34537354
H        4.55538455      -7.49435451       3.24019040       0.20895530       0.05135232       0.16844394
O        3.70490332       8.34624180      -8.31676431       0.07587547       0.00441838      -0.25803350
H        3.86411464       9.30456269      -8.42035626       0.02254699      -0.32856581       0.05475154
H        3.86278420       8.16043959      -7.37762545      -0.15027640       0.34864548      -0.27603934
O       -2.53589055       7.10898671       6.32631217      -0.28500775       0.03109426      -0.34200732
H       -1.92130396       7.69497052       6.79576236      -0.03483885      -0.24261180      -0.23479325
H       -1.99000369       6.33630694       6.13111525      -0.25503650      -0.23166588       0.20770792
O       -3.45907008       7.02199613       9.09711456      -0.28952330      -0.04021317       0.56595202
H       -2.64226611       7.42280507       9.45371306      -0.23471213      -0.00285603      -0.31047281
H       -3.63759994       7.50352675       8.28581869       0.20344132       0.27443191      -0.14987758
O        6.43880377      -5.48395997      -5.73148671      -0.19199354      -0.37978700      -0.31292875
H        7.29446015      -5.91662772      -5.57499786      -0.32928628      -0.06747415       0.26804993
H        6.26285465      -4.92397164      -4.95336081       0.16428378       0.01709330      -0.42121774
O       -6.49420763       4.51747957      -5.58551008      -0.18593018      -0.44492054       0.21023940
H       -6.27163411       4.67262529      -4.64435737      -0.42454530      -0.31751494      -0.10796627
H       -7.27499751       3.92047532      -5.61551700       0.37495644       0.62756523       0.15064744
O       -7.30153474       8.19093846       7.85753903       0.05342396       0.11464790      -0.11579795
H       -6.55725773       7.72749310       7.42982132      -0.13092298      -0.18293137      -0.10463402
H       -6.88828664       8.44993811       8.68932552      -0.17312570       0.02318871       0.28254555
O       -1.45655524      -7.87454792       7.40892357      -0.02778122       0.12075665       0.19905670
H       -0.85819502      -8.56193806       7.09812643       0.30869882      -0.19614670       0.12596136
H       -1.37303689      -7.19035266       6.73958135      -0.22171103       0.13888691      -0.18210008
O        5.21949917      -0.50295314      -7.58927295       0.42013813       0.10261393      -0.03734334
H        4.73825314      -0.54092737      -6.76128323      -0.29681728      -0.13639092       0.00405654
H        4.63524799      -0.89028407      -8.25496829      -0.00293522       0.11027178       0.00894638
O        7.56730330      -1.01202604       1.85152453      -0.21698704      -0.07399123      -0.33985136
H        7.66805015      -1.87908620       1.41391806       0.34013020       0.26859501      -0.01774027
H        7.36209766      -0.37855253       1.11805732       0.38565970      -0.48169682       0.35479019
O        1.86478770      -5.71145859      -5.03129576       0.23718248      -0.21293731      -0.26170340
H        1.71628708      -6.22407200      -4.22496343      -0.16429082      -0.01373709      -0.11465324
H        2.19214756      -4.86892127      -4.69075927       0.02262681       0.09527848       0.29993954
O       -8.92234670       6.81879970      -3.83695281      -0.02568509      -0.44235517       0.04590342
H       -8.68256471       5.92629783      -3.48784892      -0.11018215       0.37591920      -0.29642547
H       -8.66859419       6.83753718      -4.77615460       0.03320337      -0.08791838       0.38717896
O       -3.45468010       4.37805022      -7.88614865       0.17212276      -0.22850386      -0.01126521
H       -2.61349625       3.90674970      -7.77029640       0.09387618       0.68759339       0.08116575
H       -3.42192666       5.15955635      -7.30208110       0.15558852      -0.63148958      -0.22975908
O       -7.45706381       6.11941367       0.16030833       0.09050522       0.10002179       0.28896911
H       -7.39838807       5.21271522       0.47221090       0.14743175      -0.11424641      -0.24835654
H       -8.39954806       6.22337717      -0.02695006      -0.14934043       0.27088263      -0.12945818
O        0.17898261      -7.31035745      -3.52138003      -0.17445077      -0.55004009      -0.02442690
H       -0.23844265      -6.77895622      -4.21815148      -0.31443138       0.13885993       0.09053931
H       -0.18919337      -6.96686476      -2.69357084       0.18721408       0.50621046      -0.29796877
O        7.06085579       9.14141689       7.27103786       0.08857197       0.34919423       0.18402197
H        6.56984417       8.40488442       7.68607990       0.13690937       0.05020826      -0.33535032
H        7.97026171       8.82022720       7.21745364      -0.17789559      -0.14148392       0.09344027
O       -0.19201723      -3.19856745      -6.28568449      -0.20992688      -0.17593274      -0.06389334
H        0.77088834      -3.07396794      -6.39019558      -0.16132377      -0.04111604       0.11774168
H       -0.49671335      -2.96404034      -7.17160273       0.01381416      -0.02058469       0.08479991
O       -2.07498749       4.35673833       5.27029499       0.12492411      -0.02337676      -0.28506934
H       -1.88012271       3.83089281       6.05087902      -0.14640583       0.21859788       0.30122410
H       -1.24300386       4.33056787       4.77058430      -0.06231518       0.12339128      -0.05172464
O       -0.86147344       3.07899321      -7.92098932      -0.36114978      -0.10606098       0.23529974
H        0.06257627       3.12324679      -7.62752762      -0.21589209      -0.13263001      -0.23046755
H       -0.99605928       2.20239885      -8.32153220       0.37323570       0.13560305       0.03258389
O       -6.33617406       0.08412190      -8.46761027       0.09518179      -0.46099417      -0.22059621
H       -7.25233000       0.37721578      -8.38019278      -0.15421994       0.04180044       0.19267073
H       -5.83116564       0.89512970      -8.32593545       0.17409254       0.00214032      -0.08114706
O       -8.27933163      -8.80711958      -6.33400847      -0.25968141      -0.12173185       0.30745649
H       -7.54180266      -8.79175275      -5.69344373       0.04053669      -0.01934612      -0.09938005
H       -8.50604339      -9.74412729      -6.35329726       0.18402288      -0.17722610      -0.01576313
O        0.47831373       2.84140061       7.01456432       0.43234544      -0.09846161      -0.07411104
H        0.86742558       3.58731146       7.48418387      -0.11225532       0.20246165       0.24320700
H        0.76983408       2.11586691       7.58790545      -0.09358155      -0.02523266      -0.08926465
O        0.46834183      -3.43369410       6.90752635      -0.36936971       0.57509086       0.04539201
H        0.58698691      -2.99840513       7.76602793       0.02426650      -0.23232587      -0.05237428
H        0.55648254      -4.35445239       7.16908890       0.08135821      -0.04065559      -0.23424019
O       -1.70847692       7.01182835      -3.31081184       0.01814084       0.04132477      -0.12545809
H       -0.99278175       7.62209938      -3.54605788       0.30414862      -0.39357694       0.21140715
H       -1.32025835       6.20188165      -2.93053747       0.17900634       0.37717806      -0.50112419
O        8.99462664      -6.20936664       8.16065728       0.39282500       0.04974554       0.14145903
H        9.35349430      -6.82319275       7.48344915      -0.66770716       0.26595114       0.03513714
H        8.05468054      -6.03284878       8.01936051       0.47167019      -0.47828135      -0.35645817
O        1.25869724       1.93889125       3.04985933      -0.12222072      -0.24495390       0.06817915
H        1.26392769       2.61017223       2.35563657      -0.00080893      -0.15939911       0.29158283
H        1.89292845       2.23523325       3.72142171      -0.10145505       0.18059786      -0.49947312
O        4.12065784      -3.52186498      -9.00221955      -0.19052811      -0.08728000       0.09721920
H        4.07967816      -3.50200370      -9.98467035       0.23039605      -0.01639103       0.54351617
H        4.96669824      -3.94442615      -8.78776694      -0.10397534       0.09988312      -0.24508869
O        7.17665905       2.18750624      -4.07150714      -0.08733057       0.03247823      -0.07979423
H        6.99170950       1.68455288      -4.88002991      -0.07632715       0.14660739       0.03531250
H        7.62266391       2.97805050      -4.39240987       0.13471465      -0.05044509       0.01961729
O       -0.02197989      -3.94353036       2.14535288      -0.10370890       0.18875900       0.20525442
H        0.84145271      -3.51630889       2.25812140      -0.00662015      -0.17849123      -0.10043804
H       -0.67186473      -3.27588427       2.42676518       0.06145700      -0.19769213      -0.29996573
O       -8.68542475       2.78576366      -5.69408686       0.15881982      -0.12827166       0.18017488
H       -8.85588274       2.15671077      -6.41764536      -0.11187839       0.28070933       0.05715355
H       -9.46566854       3.36105982      -5.62112726       0.26732134      -0.14968389      -0.28947896
O        2.79056251       8.90206807      -5.63915164       0.26973209       0.14798318       0.06915753
H        3.07401083       9.81985263      -5.77290388       0.14730622      -0.16821865       0.03208278
H        3.52467236       8.47960534      -5.16056424      -0.08000754       0.03504044      -0.20099484
O        3.23176612       8.34266679       3.66757837      -0.12210729      -0.06647494      -0.34052149
H        3.46088589       9.08338338       3.08274345       0.17975030      -0.13106768       0.58729641
H        3.47075072       8.59169688       4.57129600       0.02212220       0.26841905      -0.17972196
O        5.64261977       7.20740247       8.50708176       0.13812988       0.19132204      -0.15052657
H        5.46415351       6.31712464       8.15817580       0.07157921       0.29555239       0.66057498
H        4.96103967       7.45851900       9.14477269      -0.00391088      -0.47241666      -0.13770475
O       -3.76581145       1.26209260       2.00420931       0.01437898       0.49615535      -0.13166630
H       -3.71339456       2.03160203       2.58606503      -0.18490894      -0.07990835       0.18480796
H       -3.36411547       1.60447704       1.19921932       0.02373492      -0.12700259      -0.29060713
O        8.23537281      -3.44678256       0.84317621       0.05246095      -0.20353700      -0.04492735
H        9.02816837      -3.69642111       1.34186247       0.09480087       0.39955700       0.18644884
H        7.54370464      -3.97915122       1.27478127      -0.09021980       0.03883674      -0.18318136
O       -3.01840012       1.33629592       7.23473770       0.18602833      -0.02138687       0.14646573
H       -3.70318901       0.73884679       6.91825380      -0.16935132      -0.01827875      -0.08293978
H       -3.52507712       2.11051200       7.53254725      -0.07309154       0.10661449      -0.16265597
O        4.90404067      -5.55007640      -0.11209905      -0.06427339      -0.07628334      -0.00365870
H        5.32662376      -5.55737430       0.76104988       0.08230770       0.09132049      -0.00983271
H        5.45194206      -4.93628252      -0.61656179       0.14625222      -0.17640371      -0.04148678
O       -3.29098156       8.47848985      -0.50649215       0.21558913      -0.16424143       0.09257243
H       -2.84332513       9.11713844      -1.07535992       0.06327389       0.23395893      -0.14773840
H       -3.31580992       8.92101041       0.35533620      -0.17345096       0.15352617      -0.07721202
O       -6.58313089       3.05276446      -0.27737119       0.01584359       0.24264684      -0.14301036
H       -6.69677378       2.64206406       0.59500805       0.37431822      -0.18733546      -0.75879929
H       -6.04080351       2.45628228      -0.82578385      -0.27181118      -0.14264074       0.63231493
O       -5.44275196      -5.95769161       5.17005153      -0.14877974       0.03309967       0.05360088
H       -4.89486824      -6.61414090       4.70658801      -0.09946448      -0.05151029       0.40503839
H       -5.37214906      -6.13523962       6.11856444       0.35863577       0.01005313      -0.26307079
O        6.06052137       7.02727647       0.03249283      -0.25846742       0.38550012       0.22771824
H        5.94082037       7.97735425      -0.13681516       0.18331473       0.09852727       0.30875500
H        5.37603470       6.85778368       0.70444474      -0.09661217      -0.19304863      -0.32841718
O       -0.90372164      -2.62009507      -3.61525967      -0.44560250      -0.09982146      -0.53372207
H       -1.70168462      -2.09237874      -3.52233795      -0.03904366       0.01020989       0.35887029
H       -0.87693578      -2.64873949      -4.58927949       0.46767649      -0.25998513      -0.00754195
O       -5.45080187       1.00304554      -2.09529321      -0.23945659       0.32442595       0.35470578
H       -4.50561473       0.98753451      -1.88708176      -0.07281853      -0.27712931      -0.12754652
H       -5.75139919       0.09872882      -1.92676716       0.14007941      -0.00813079      -0.22936054
O       -7.51397763      -4.06230754       7.19375223      -0.20985048      -0.22549028       0.30956839
H       -8.26243787      -4.33110443       7.74753526       0.07508389       0.02686447       0.00596706
H       -6.90818030      -4.81781451       7.27536707       0.09597028       0.48736589       0.16486376
O       -1.11922698       8.65441418       2.08973749      -0.08884947      -0.27894044      -0.14016450
H       -1.97274526       8.62069423       2.55435330       0.13971975      -0.32534624      -0.19417092
H       -1.12597317       7.86560964       1.50632834      -0.09521945       0.44259880       0.31222726
O       -6.28571866       8.01120563       2.02931529      -0.04884550      -0.43620199       0.07986020
H       -6.40878944       8.84325279       1.55111500      -0.10775480      -0.20636323       0.16720000
H       -6.67347865       7.32239397       1.46688838      -0.06811280       0.34082955      -0.36221272
O       -6.76147371      -4.03558261      -8.31290286       0.54716511       0.52562989       0.24838558
H       -6.56542082      -4.82913279      -8.80933729      -0.40200703      -0.04567238       0.01519691
H       -7.72065884      -3.96641316      -8.18781291       0.08600259      -0.26650980      -0.43642545
O        6.89335778       7.04891004      -3.02958274      -0.36427244      -0.48984474      -0.31869439
H        7.78939833       7.26947100      -3.31579434      -0.10580028       0.21561620       0.19013501
H        6.68867635       7.53778441      -2.22785432       0.42858308       0.19581649      -0.21856882
O        8.02636905       4.73444398      -5.15484053      -0.39411576      -0.22513410      -0.29888778
H        7.21296202       4.73661020      -5.70248470       0.35784510       0.15803020       0.17456233
H        8.39958365       5.61442228      -5.29957796      -0.06887760      -0.31246227       0.05048185
O       -5.23346885      -6.45915276      -4.37647208       0.02665807       0.14546485       0.19213272
H       -5.68922894      -7.31342243      -4.38858311       0.31016773      -0.13852594      -0.26720828
H       -4.85931312      -6.33318949      -5.26770570      -0.13332328      -0.11362317       0.33106155
O       -3.81522267      -9.24968848       7.29124522       0.15347902       0.22732538       0.03437441
H       -2.92383337      -8.86088436       7.42963801      -0.54660416       0.07084316      -0.06971173
H       -4.42154691      -8.55545731       7.58176144       0.20510938      -0.30037437       0.01630859
O       -6.00443788      -1.56116288       3.08044171       0.11030788      -0.61372314      -0.00268522
H       -5.80414978      -1.12895972       3.91324780       0.17068720       0.04656081       0.04830891
H       -6.63110367      -0.96510706       2.64990313      -0.02214051       0.05470949       0.04846973
O        1.15933953       7.14302954      -1.18833375       0.23528782      -0.03964722       0.14511679
H        0.33354489       7.35261977      -0.73105655       0.00558409      -0.32923757      -0.13541295
H        1.05217654       7.47947892      -2.08636120      -0.11016582       0.22128139      -0.04676702
O       -5.86742429       5.14506744      -2.99259641      -0.07113236      -0.08640476      -0.07804456
H       -5.20068196       4.56550411      -2.62200204       0.23910007      -0.10388982      -0.11767614
H       -5.40408392       6.00000071      -3.06047171       0.09491907       0.14598714       0.08172123
O        2.52131487       3.41311879       5.00265402      -0.07089241      -0.29983824      -0.41862880
H        1.78311392       3.18869616       5.57872708      -0.21131249       0.02617531       0.48197088
H        2.83467524       4.27976662       5.27944692       0.15080164       0.12607709       0.48693205
O        8.30286733      -7.33846562      -5.17058940      -0.59733819       0.04618321      -0.42902994
H        8.44048778      -7.59412868      -4.24992548       0.46318672      -0.33814426      -0.58960161
H        8.92635961      -7.77110502      -5.78602156       0.25993284      -0.05245525       1.10818078
O       -5.76936857       1.34581767      -5.30769996       0.22285721      -0.10116446       0.24928342
H       -5.22855223       1.57014324      -6.07319530       0.11586196      -0.07131549      -0.33545707
H       -6.21495453       2.16290467      -5.10105052      -0.20649565       0.33759770      -0.16795447
O        6.33539470      -4.93486217       2.15351609       0.07532377      -0.26173133      -0.16683806
H        5.64845402      -4.75906507       2.82254179       0.12211052       0.22243233      -0.02239830
H        6.88944885      -5.60193581       2.56547854       0.18146725      -0.12976737       0.13654756
O       -2.74288836       6.59847852      -5.85158482       0.22647018       0.04918335      -0.01061682
H       -2.31895374       7.26025126      -6.41144677       0.05317150      -0.27514151       0.14739309
H       -2.21512603       6.59760286      -5.02553434      -0.29832498      -0.00924243      -0.34610500
O       -1.80358390       0.70892802      -9.04372572       0.28964018       0.24892014       0.01882485
H       -1.77427394      -0.25590274      -8.92145783      -0.30171414       0.05406407      -0.02134919
H       -2.10324102       0.85306621      -9.96407061      -0.18759142      -0.16975662       0.16542977
O        6.15095034      -6.91044951       8.38182254       0.07159936       0.42619954       0.07081540
H        5.33736057      -7.17942000       8.82968639      -0.10625661      -0.11761893      -0.09060821
H        6.62238511      -7.72892061       8.20469450      -0.01839055      -0.44381047      -0.10813801
O        2.90927513       8.60457892       0.44397829       0.60593573       0.04713840       0.02834309
H        2.43682996       8.08397768      -0.22622939      -0.56212354       0.69395351       0.28034016
H        2.33583149       9.26594994       0.87107854      -0.30603182      -0.49002709      -0.61697905
O       -8.47916654      -8.17723417       6.50002673      -0.11169597      -0.01500103       0.15442235
H       -8.03247982      -8.94499298       6.89197228      -0.00893553       0.13968363       0.03662850
H       -8.17491794      -8.18134705       5.57808274       0.02904715      -0.03988131       0.10633569
O        6.72513542      -2.95190709       6.55866053       0.37011906      -0.12621710      -0.05237549
H        7.13957675      -2.46107383       7.27443207      -0.03245085      -0.02416009       0.14848958
H        7.20398251      -2.62444132       5.77898414      -0.34823357       0.35743017      -0.15790468
O        6.44654305      -5.47721806       5.57090567       0.17161995      -0.07805571       0.06067877
H        6.72364580      -4.69324146       6.08007843      -0.28603089      -0.22104093      -0.02152920
H        6.09661949      -6.09271014       6.22621463      -0.09761206       0.14059819       0.09217718
O       -1.82091682      -6.09188073      -8.79516001      -0.16465608      -0.02164669       0.30928308
H       -1.65041070      -6.75835666      -9.47831170      -0.09696010       0.30492059      -0.16532688
H       -2.07169326      -5.26754313      -9.22755609       0.26170390      -0.32095488      -0.23993774
O        6.03681493       2.93627066       2.86567083       0.20958635       0.08666481      -0.45003588
H        6.41808773       3.77749188       2.57011144      -0.09875241      -0.01894827       0.17713346
H        5.57223073       2.60887312       2.08209702       0.03375595      -0.13358846      -0.03231690
O       -7.72311275       3.32836012       3.30820349      -0.08974269      -0.24324101       0.10895104
H       -8.35231090       4.02067708       3.58150475      -0.01564375      -0.28895188      -0.21945395
H       -8.13892836       2.85164073       2.57503700      -0.15093880       0.23937727       0.00777330
