6
Frame 1
O     -0.072886    -1.500482    -0.000000
H      0.055403    -0.540710    -0.000000
H      0.816480    -1.856326     0.000000
O      0.089539     1.397333    -0.000000
H     -0.424764     1.682089     0.759290
H     -0.424764     1.682089    -0.759290
9
Frame 2
O      0.926205    -1.318101     0.102822
H     -0.034053    -1.179647     0.038365
H      1.132793    -1.904369    -0.626102
O     -1.595002    -0.153214    -0.095106
H     -2.127510    -0.093032     0.699729
H     -1.006699     0.619581    -0.049253
O      0.658952     1.467698     0.087030
H      1.009789     1.955225    -0.659171
H      1.069847     0.589171     0.024368
12
Frame 3
O      1.923152    -0.004356    -0.021874
H      1.319675    -0.770388    -0.016221
H      2.458777    -0.123652     0.763363
O     -1.923152     0.004356    -0.021874
H     -1.319675     0.770388    -0.016221
H     -2.458777     0.123652     0.763363
O     -0.004356    -1.923152     0.021874
H     -0.770388    -1.319675     0.016221
H     -0.123652    -2.458777    -0.763363
O      0.004356     1.923152     0.021874
H      0.770388     1.319675     0.016221
H      0.123652     2.458777    -0.763363
15
Frame 4
O     -0.576775    -2.220806     0.118995
H     -1.211580    -1.487278     0.013654
H     -0.844117    -2.640594     0.936968
O     -2.282974    -0.143503    -0.135678
H     -1.783844     0.691055    -0.054281
H     -2.726503    -0.062893    -0.980616
O     -0.861091     2.149159     0.065464
H      0.093702     1.951189     0.046583
H     -0.985626     2.632099     0.882460
O      1.760450     1.451137    -0.067084
H      1.847011     0.479341    -0.062042
H      2.446385     1.746905     0.531303
O      1.933302    -1.244424    -0.043161
H      1.034131    -1.613494     0.045137
H      2.262409    -1.642029    -0.849886
18
Frame 5
O     -1.220673    -1.859413    -0.226207
H     -1.946386    -2.467213    -0.370335
H     -1.634309    -0.976758    -0.219946
O      1.049273    -1.106721     1.442101
H      1.447657    -1.094436     0.551218
H      0.216801    -1.568271     1.261981
O      0.265089     1.402002     1.465214
H      0.600768     0.490287     1.581126
H      0.475867     1.845166     2.287042
O      1.360096    -1.052039    -1.332720
H      0.482268    -1.456368    -1.269018
H      1.166818    -0.111020    -1.462869
O      0.582080     1.743485    -1.235769
H      1.078369     2.487074    -1.580338
H      0.641746     1.828002    -0.269408
O     -1.994365     0.734809    -0.161664
H     -1.509658     1.104781    -0.911748
H     -1.445622     1.020884     0.586473
18
Frame 6
O     -1.618286    -0.881845    -0.618231
H     -1.128145    -1.689517    -0.377743
H     -2.502366    -1.185206    -0.826777
O     -0.764951     0.792640     1.582380
H     -1.250648     0.277491     0.918368
H      0.102936     0.363383     1.578995
O      0.618064     0.672656    -1.600390
H     -0.232089     0.218499    -1.503748
H      0.439572     1.554818    -1.228475
O      1.654295    -0.590816     0.509410
H      2.582582    -0.399070     0.644599
H      1.412818    -0.091616    -0.296632
O      0.094986    -2.807711     0.203958
H      0.489045    -3.365879    -0.468191
H      0.780143    -2.141545     0.390482
O      0.058181     2.863607     0.000736
H     -0.320670     2.256124     0.662047
H     -0.582020     3.570848    -0.075708
18
Frame 7
O      1.570447    -0.117669     0.806967
H      1.504866    -0.969584     0.332354
H      2.120517    -0.315663     1.565850
O      1.181701    -2.435632    -0.446039
H      0.205423    -2.461369    -0.477901
H      1.442881    -2.486046    -1.366085
O     -1.484275    -2.222599    -0.458136
H     -2.016682    -2.840482     0.043040
H     -1.559599    -1.384616     0.039464
O     -1.371698     2.441050    -0.440845
H     -0.402467     2.509448    -0.500957
H     -1.635487     3.234040     0.027140
O      1.378299     2.331041    -0.428357
H      1.518466     1.464953    -0.008799
H      1.825554     2.258817    -1.272583
O     -1.359370     0.034705     0.961750
H     -0.400505     0.050051     1.089827
H     -1.526186     0.862573     0.477020
18
Frame 8
O      2.683720     0.009085    -0.115958
H      2.177498    -0.818170    -0.010796
H      3.184477    -0.133672    -0.919329
O     -1.349728     2.319627    -0.115958
H     -0.380193     2.294853    -0.010796
H     -1.476475     2.824674    -0.919330
O     -1.333992    -2.328712    -0.115958
H     -1.797305    -1.476683    -0.010796
H     -1.708002    -2.691002    -0.919329
O     -2.683720    -0.009085     0.115958
H     -2.177498     0.818170     0.010796
H     -3.184477     0.133672     0.919329
O      1.349728    -2.319627     0.115958
H      0.380193    -2.294853     0.010796
H      1.476475    -2.824674     0.919330
O      1.333992     2.328712     0.115958
H      1.797305     1.476683     0.010796
H      1.708002     2.691002     0.919329
21
Frame 9
O      1.063165    -1.260952    -1.353706
H      0.278682    -1.565437    -0.851883
H      1.255729    -1.981020    -1.954074
O      2.496614    -0.033615     0.732644
H      2.192046    -0.622837     0.021506
H      2.444767     0.832977     0.310331
O      0.200765    -0.147393     2.127377
H      1.102232    -0.113985     1.755240
H      0.329595    -0.193117     3.075381
O     -0.972806    -1.869300     0.166532
H     -0.683293    -1.407199     0.967873
H     -1.712331    -1.318397    -0.149001
O     -1.065238     1.801790     0.441446
H     -0.351310     1.814645    -0.216573
H     -0.704868     1.240465     1.145362
O     -2.780536     0.028922    -0.663016
H     -3.657155     0.139892    -0.295143
H     -2.260757     0.760966    -0.280567
O      1.064854     1.483709    -1.429848
H      0.975482     1.907080    -2.284807
H      0.997764     0.531807    -1.616272
24
Frame 10
O      1.343474    -1.440262     1.336497
H      0.389185    -1.532642     1.489006
H      1.501899    -0.494734     1.489001
O     -1.343475     1.440261     1.336497
H     -0.389185     1.532642     1.489006
H     -1.501899     0.494734     1.489001
O      1.484986     1.385173     1.317065
H      1.565623     1.460380     0.345340
H      2.137287     1.993625     1.664991
O     -1.484987    -1.385174     1.317066
H     -1.565623    -1.460381     0.345339
H     -2.137286    -1.993623     1.664991
O      1.440261     1.343475    -1.336497
H      0.494734     1.501899    -1.489001
H      1.532642     0.389185    -1.489006
O     -1.440262    -1.343475    -1.336497
H     -0.494734    -1.501899    -1.489001
H     -1.532642    -0.389185    -1.489006
O      1.385174    -1.484987    -1.317067
H      1.460381    -1.565623    -0.345339
H      1.993623    -2.137285    -1.664990
O     -1.385175     1.484988    -1.317069
H     -1.460381     1.565623    -0.345337
H     -1.993622     2.137284    -1.664990
24
Frame 11
O      0.014401     1.956227    -1.442078
H      0.776595     1.348785    -1.521431
H      0.194883     2.659616    -2.065927
O     -0.014408    -1.956204    -1.442068
H     -0.776585    -1.348793    -1.521429
H     -0.194887    -2.659630    -2.065939
O      1.918322     0.125418    -1.380077
H      1.390568    -0.679108    -1.508751
H      2.119482     0.105034    -0.430227
O     -1.918308    -0.125403    -1.380097
H     -1.390578     0.679092    -1.508748
H     -2.119486    -0.105033    -0.430209
O      1.956265    -0.014391     1.442099
H      1.348772    -0.776611     1.521432
H      2.659592    -0.194877     2.065905
O     -1.956217     0.014405     1.442074
H     -1.348789     0.776590     1.521430
H     -2.659622     0.194885     2.065933
O     -0.125425     1.918329     1.380067
H      0.679114     1.390563     1.508752
H     -0.105034     2.119481     0.430235
O      0.125410    -1.918315     1.380086
H     -0.679100    -1.390573     1.508750
H      0.105034    -2.119484     0.430219
27
Frame 12
O     -0.416456     1.080735    -2.012760
H      0.315695     1.421220    -1.473818
H     -1.198715     1.281368    -1.474542
O     -0.313690    -1.073750     2.098404
H     -0.299410    -0.096396     2.056636
H     -0.346457    -1.275357     3.033782
O     -2.377051    -1.363486     0.179975
H     -1.809612    -1.594496    -0.573686
H     -1.765882    -1.407675     0.932916
O     -0.397433    -1.564437    -1.834767
H     -0.429452    -1.955608    -2.708059
H     -0.359748    -0.600421    -1.996144
O      1.566153     2.017133    -0.219509
H      2.042236     2.821007    -0.430359
H      2.260800     1.332973    -0.152538
O     -2.498939     1.271375    -0.107832
H     -3.396912     1.600206    -0.150167
H     -2.589161     0.303208    -0.002424
O      3.274619     0.002756    -0.074087
H      3.882576    -0.084299     0.660232
H      2.682368    -0.770490     0.015449
O     -0.395054     1.553010     1.752152
H     -1.186221     1.618532     1.193913
H      0.324694     1.792036     1.145778
O      1.534072    -2.001822     0.178169
H      0.941725    -1.966544    -0.589973
H      0.950304    -1.760679     0.914946
30
Frame 13
O     -0.801438     2.355227    -1.207698
H     -1.158677     3.087379    -1.711529
H     -1.443928     1.633746    -1.330217
O      1.837109     1.364220    -1.366843
H      0.946618     1.747247    -1.409746
H      2.044386     1.388764    -0.418466
O     -2.419227     0.188172    -1.305865
H     -3.220717     0.023164    -1.802956
H     -1.898208    -0.634696    -1.411635
O      1.681469    -1.248169    -1.726050
H      1.758376    -0.273779    -1.685527
H      2.301553    -1.509660    -2.407060
O      2.130245     1.051231     1.410636
H      2.099981     0.073796     1.387656
H      2.892112     1.255031     1.953468
O      1.951964    -1.567006     1.091378
H      1.045977    -1.842532     1.309305
H      1.966857    -1.606646     0.122472
O     -2.159019    -0.028500     1.597142
H     -2.434373     0.093043     0.677793
H     -1.564000     0.731471     1.744999
O     -0.744502    -2.221948     1.398903
H     -1.123650    -2.887164     1.973469
H     -1.281325    -1.420105     1.565842
O     -0.981505    -2.005004    -1.398780
H     -0.064293    -1.783661    -1.629873
H     -0.919546    -2.247811    -0.460785
O     -0.470763     2.127034     1.648986
H      0.438135     1.788839     1.687304
H     -0.568713     2.398318     0.724874
33
Frame 14
O      1.889805    -1.992753    -1.362920
H      2.576983    -2.456529    -1.840710
H      1.847500    -1.108672    -1.777963
O     -0.858234     2.693669    -0.489555
H      0.110878     2.716721    -0.544721
H     -1.089577     1.863281    -0.932078
O      1.469108    -1.599906     1.446200
H      1.722950    -1.768334     0.526414
H      0.574724    -1.967536     1.503607
O      1.444127     0.414444    -2.378344
H      0.478394     0.429401    -2.325070
H      1.715559     1.087497    -1.732012
O     -0.865660    -2.331661    -1.435685
H      0.103211    -2.376466    -1.488414
H     -1.048159    -2.555958    -0.508687
O     -1.240115    -2.485514     1.317444
H     -1.726976    -3.126454     1.836246
H     -1.788698    -1.677305     1.336750
O     -2.576836    -0.221402     1.065689
H     -2.157734     0.503468     1.559372
H     -2.376647    -0.002598     0.145179
O     -1.495920     0.202445    -1.724488
H     -2.123118     0.206248    -2.450240
H     -1.266974    -0.747178    -1.623714
O     -1.180332     1.985853     2.048333
H     -1.566530     2.670949     2.594313
H     -1.102109     2.385098     1.159584
O      1.563931     1.081461     1.893113
H      0.654442     1.311501     2.131171
H      1.536470     0.115028     1.767453
O      1.901291     2.275504    -0.390639
H      2.616468     2.906969    -0.312592
H      1.862874     1.836592     0.485236
48
Frame 15
O      2.228609     2.789637     0.928225
H      1.374144     3.183021     1.159598
H      2.307285     2.969721    -0.023193
O      1.533664    -3.340844    -0.585428
H      0.655260    -3.712903    -0.406027
H      1.870805    -3.127596     0.297494
O     -1.516540    -0.235453    -1.156518
H     -0.586926    -0.489336    -1.306093
H     -1.654209     0.486323    -1.792853
O      1.324432     1.204502    -3.235027
H      1.357469     0.415561    -2.666738
H      0.375737     1.389737    -3.300708
O     -2.883777    -2.343969    -0.007462
H     -2.512777    -1.616195    -0.534523
H     -2.865962    -1.994444     0.896069
O      2.121576    -2.224469     1.996883
H      2.013935    -1.283375     1.765641
H      2.915305    -2.251793     2.532452
O     -1.193532     0.812628     1.311115
H     -1.599645     0.148288     1.893973
H     -1.386806     0.470907     0.418381
O      1.119050    -0.782736    -1.357563
H      1.362944    -0.424936    -0.487397
H      1.280524    -1.740082    -1.247509
O     -0.584352     3.987971    -1.458155
H     -0.677168     3.841134    -0.503450
H      0.372561     3.908485    -1.602926
O     -0.401715    -3.207809     2.763721
H     -0.584854    -3.709005     1.952574
H      0.492672    -2.860696     2.613579
O     -1.029126    -4.222392     0.221385
H     -1.426244    -5.070947     0.022876
H     -1.743848    -3.575206     0.056456
O      1.512132     0.218354     1.193625
H      1.920393     1.103833     1.120611
H      0.572946     0.430374     1.326379
O      2.114206     3.288569    -1.830831
H      2.758753     3.769326    -2.350897
H      1.905926     2.500433    -2.373027
O     -1.442174     1.919160    -2.857305
H     -1.213600     2.719887    -2.343933
H     -2.075391     2.223009    -3.508042
O     -2.242107    -1.342068     2.623601
H     -1.546328    -2.017115     2.760971
H     -2.779418    -1.389287     3.414553
O     -0.551105     3.395520     1.313679
H     -0.873906     2.482551     1.421450
H     -1.022553     3.900003     1.977606
48
Frame 16
O      1.337383    -1.511412     1.278765
H      0.364673    -1.487411     1.312288
H      1.594008    -0.619498     1.562554
O     -1.203646    -4.346736     0.979199
H     -0.228049    -4.409729     1.011341
H     -1.510663    -5.077399     1.516966
O     -1.512886     1.505774    -1.072609
H     -1.519977     1.422463    -0.102201
H     -1.669793     2.453985    -1.214589
O      1.233210     1.565457    -1.315730
H      1.519113     0.685004    -1.607238
H      0.261841     1.500079    -1.320480
O     -1.281180    -1.215286    -1.605957
H     -1.572806    -0.291869    -1.670814
H     -0.310244    -1.147132    -1.628256
O     -1.289412    -4.019393    -1.855832
H     -1.524949    -3.080237    -1.907212
H     -1.421106    -4.234555    -0.918909
O      1.239403     4.350308    -0.897286
H      1.403452     4.338727     0.058975
H      1.470846     3.451271    -1.177058
O     -1.414799    -1.568226     1.116483
H     -1.527277    -2.522197     1.261978
H     -1.453813    -1.485540     0.146780
O      1.251509     3.998962     1.935747
H      1.578722     4.584520     2.619370
H      0.277742     4.047534     2.014803
O      1.460665     1.266991     1.407169
H      1.580670     2.160382     1.769543
H      1.466548     1.415368     0.444546
O      1.362666    -3.942747    -1.975144
H      1.694152    -4.513717    -2.669064
H      0.389962    -4.032497    -2.025677
O     -1.403957     3.963179     1.894472
H     -1.572059     4.171460     0.961833
H     -1.598075     3.015000     1.952783
O     -1.415437     4.290726    -0.941777
H     -0.444737     4.394812    -1.002701
H     -1.768759     5.006917    -1.470496
O      1.471932    -1.204631    -1.449270
H      1.618668    -2.092249    -1.815976
H      1.512343    -1.352389    -0.487384
O      1.448960    -4.293941     0.856633
H      1.650486    -3.385967     1.130617
H      1.584146    -4.275493    -0.104019
O     -1.284574     1.161163     1.644629
H     -1.534641     0.226246     1.717561
H     -0.311370     1.134292     1.638416
48
Frame 17
O      1.451095     1.410401     1.278704
H      1.484442     1.441874     0.305537
H      1.597638     2.336671     1.532832
O     -1.451095    -1.410406     1.278706
H     -1.597638    -2.336668     1.532832
H     -1.484442    -1.441873     0.305535
O      1.428826    -4.182262     1.289796
H      0.483150    -4.282748     1.483381
H      1.599815    -3.250909     1.499449
O      1.282272    -1.368498     1.467733
H      1.557502    -0.456657     1.652885
H      0.309944    -1.318387     1.481262
O     -1.282272    -1.368498    -1.467733
H     -1.557502    -0.456657    -1.652885
H     -0.309944    -1.318387    -1.481262
O      1.428831     4.182257    -1.289798
H      0.483146     4.282748    -1.483381
H      1.599814     3.250914    -1.499448
O     -1.429909     4.210248    -1.356070
H     -1.509538     4.298373    -0.385133
H     -2.035298     4.862205    -1.710545
O      1.429857    -4.210193    -1.355983
H      2.035354    -4.862262    -1.710577
H      1.509534    -4.298369    -0.385187
O     -1.429859    -4.210195     1.355986
H     -1.509534    -4.298369     0.385185
H     -2.035352    -4.862260     1.710576
O     -1.428831     4.182257     1.289798
H     -0.483146     4.282748     1.483381
H     -1.599814     3.250914     1.499448
O      1.451095    -1.410406    -1.278706
H      1.484442    -1.441873    -0.305535
H      1.597638    -2.336668    -1.532832
O     -1.451095     1.410401    -1.278704
H     -1.597638     2.336671    -1.532832
H     -1.484442     1.441874    -0.305537
O      1.429907     4.210246     1.356067
H      1.509538     4.298372     0.385135
H      2.035300     4.862207     1.710546
O     -1.428825    -4.182262    -1.289796
H     -0.483150    -4.282748    -1.483381
H     -1.599815    -3.250909    -1.499449
O      1.282276     1.368494    -1.467733
H      1.557501     0.456661    -1.652885
H      0.309941     1.318387    -1.481262
O     -1.282276     1.368494     1.467733
H     -0.309941     1.318387     1.481262
H     -1.557501     0.456661     1.652885
48
Frame 18
O      0.225048     1.122181    -1.624083
H     -0.649369     1.481872    -1.846810
H      0.080570     0.160259    -1.578183
O      4.132475    -0.246753    -1.252296
H      4.897451    -0.216443    -1.828183
H      3.670259     0.599100    -1.418315
O     -2.350857     2.149520    -1.797679
H     -2.559524     2.963371    -2.257434
H     -2.424540     2.376039    -0.847919
O     -4.132757     0.246769     1.251358
H     -3.670636    -0.599100     1.417586
H     -4.898082     0.216415     1.826769
O      2.720700     2.325124     1.394648
H      3.254695     1.520191     1.549365
H      3.120664     2.990984     1.953980
O      2.505701    -2.464739    -0.799787
H      1.620535    -2.207121    -1.101697
H      3.071818    -1.723423    -1.069675
O     -2.505129     2.464506     0.800292
H     -1.620098     2.206460     1.102250
H     -3.071567     1.723280     1.069742
O     -2.720610    -2.325007    -1.395048
H     -3.254187    -1.519910    -1.550024
H     -3.120449    -2.990673    -1.954817
O     -2.811546    -2.023910     1.466888
H     -1.885891    -1.775939     1.629748
H     -2.808922    -2.316266     0.542732
O      4.094341     0.084728     1.557877
H      3.527882    -0.659429     1.818731
H      4.264616    -0.091549     0.618685
O     -0.112305    -1.520056    -1.097058
H     -0.966274    -1.907141    -1.353470
H     -0.197078    -1.418130    -0.132473
O      2.811149     2.023870    -1.467238
H      1.885518     1.775522    -1.629711
H      2.808749     2.316197    -0.543073
O     -4.093587    -0.084186    -1.558771
H     -3.527102     0.660037    -1.819394
H     -4.264127     0.091969    -0.619611
O     -0.225025    -1.123048     1.624713
H      0.649455    -1.482603     1.847516
H     -0.080579    -0.161133     1.578847
O      2.351752    -2.148879     1.798162
H      2.425398    -2.375665     0.848377
H      2.561438    -2.962229     2.258099
O      0.112534     1.519136     1.097720
H      0.966433     1.906457     1.353986
H      0.197266     1.417152     0.133127
48
Frame 19
O      0.120109     0.517832    -1.902679
H      0.080359    -0.383673    -1.536455
H     -0.786004     0.681952    -2.211796
O      2.588898    -0.914665     2.371882
H      2.981417    -1.167432     3.208060
H      3.134312    -0.162527     2.064723
O     -4.037251    -1.120469    -1.275023
H     -3.553851    -0.455478    -1.790974
H     -4.224793    -0.656049    -0.443128
O     -2.569959     1.084452    -2.324904
H     -2.680811     1.603870    -1.502427
H     -2.889576     1.660162    -3.020264
O     -0.085681    -0.554966     1.890611
H      0.833057    -0.690055     2.178579
H     -0.080758     0.350657     1.531424
O      4.027700     1.023722     1.326139
H      3.497333     1.811017     1.123693
H      4.219170     0.656498     0.448099
O     -2.529991    -1.771412     2.183893
H     -1.641475    -1.377771     2.205415
H     -2.497938    -2.364668     1.418081
O      2.778922    -2.251036    -0.169927
H      1.847462    -2.236225    -0.445812
H      2.734797    -1.976508     0.759021
O     -2.427650    -3.016219    -0.411895
H     -2.724137    -3.870783    -0.725167
H     -3.050210    -2.376270    -0.811506
O      2.523410     1.843946    -2.032439
H      1.666934     1.392894    -2.119846
H      3.141158     1.114949    -1.859096
O      2.386131     3.085213     0.257786
H      2.564835     4.022901     0.183072
H      2.470506     2.738838    -0.653576
O     -0.070065     1.790532     0.534351
H      0.055606     1.395700    -0.347526
H      0.696952     2.380514     0.619721
O     -2.785421     2.227861     0.025860
H     -1.875930     2.196733     0.363070
H     -3.254684     1.559913     0.551417
O     -4.121088     0.121989     1.267025
H     -4.877768     0.200784     1.848270
H     -3.559618    -0.558617     1.690097
O      4.154124    -0.251940    -1.196319
H      3.657106    -1.039561    -0.896266
H      4.929113    -0.611009    -1.628997
O      0.042985    -1.819895    -0.520356
H     -0.748903    -2.378643    -0.597081
H     -0.062823    -1.404076     0.353999
51
Frame 20
O     -0.011185    -0.104346     0.073982
H     -0.556435    -0.759228     0.542904
H      0.249564     0.499160     0.791098
O     -1.394045    -1.993155     1.553765
H     -1.900889    -2.323548     0.792148
H     -0.655830    -2.621630     1.625171
O      0.676197     1.455041     2.238295
H      0.704785     2.329204     1.813949
H      1.599761     1.151795     2.204325
O      1.669737    -1.396328    -1.597006
H      1.897521    -0.734532    -2.270166
H      1.119403    -0.886761    -0.976803
O     -0.865275     1.167070    -2.155841
H     -0.559806     0.694999    -1.361651
H     -0.062363     1.220362    -2.697552
O     -2.537680    -2.574120    -0.879091
H     -3.294997    -3.128438    -1.068323
H     -2.829260    -1.677093    -1.145150
O      3.174322     0.523835     1.579242
H      3.129124    -0.421567     1.327637
H      4.014933     0.599797     2.032707
O      0.697639     3.684929     0.649075
H     -0.169284     3.619059     0.196211
H      0.772253     4.609860     0.882426
O     -3.250268     1.539751     0.786422
H     -2.763995     1.145145     1.539442
H     -4.074672     1.833681     1.174840
O     -1.569544     3.345925    -0.595250
H     -2.188537     2.833687    -0.048845
H     -1.327589     2.710696    -1.290986
O      2.721645     2.240056    -0.687293
H      2.940499     1.614831     0.022196
H      2.041213     2.803634    -0.286109
O     -3.286871    -0.129707    -1.510975
H     -3.341720     0.410660    -0.705423
H     -2.570076     0.293948    -2.008459
O      0.786582    -3.687979     1.202220
H      0.549403    -3.783937     0.257031
H      0.885435    -4.585937     1.520680
O      1.883471     1.080613    -2.917793
H      2.239640     1.548232    -2.136239
H      2.407912     1.401047    -3.651735
O     -1.902825     0.438328     2.792524
H     -1.004972     0.806583     2.775077
H     -1.774903    -0.481273     2.508837
O      0.056868    -3.623332    -1.322062
H      0.619688    -2.899018    -1.642905
H     -0.832897    -3.237621    -1.297742
O      3.078403    -1.979470     0.747398
H      2.374113    -2.544122     1.103550
H      2.803653    -1.861044    -0.176837
60
Frame 21
O     -1.325122     2.362604     1.392185
H     -0.898116     1.496151     1.512270
H     -2.261919     2.165565     1.560793
O     -1.359667     2.560895    -1.312426
H     -1.330564     2.596766    -0.339329
H     -0.644880     3.163016    -1.579123
O     -0.101626     0.001834     1.490312
H     -0.451764    -0.904994     1.537798
H      0.864584    -0.097544     1.543157
O      2.597073    -0.014369     1.279913
H      2.611405     0.053033     0.308304
H      2.834247     0.884300     1.565677
O     -3.858318    -1.354976    -1.464982
H     -4.617041    -1.615081    -1.988433
H     -3.855631    -0.377417    -1.515802
O      0.893576    -4.216326     1.488666
H      1.063263    -4.958348     2.069382
H      1.717321    -3.688950     1.519175
O      2.984425    -2.705316    -1.552229
H      3.584665    -3.159179    -2.144636
H      2.171375    -3.250455    -1.569901
O     -0.188391     0.110236    -1.243483
H     -0.616398     0.956845    -1.467123
H     -0.189198     0.127213    -0.269774
O     -1.271702    -2.333472    -1.473268
H     -2.221201    -2.157722    -1.587084
H     -0.883522    -1.442957    -1.544189
O     -3.881693     1.340546     1.504729
H     -4.616867     1.570243     2.073828
H     -3.831291     0.364528     1.557268
O      0.792467    -4.170226    -1.379626
H      0.766164    -4.362420    -0.429976
H      0.000634    -3.626413    -1.524391
O      2.508729     0.013430    -1.446473
H      2.757747    -0.911562    -1.610962
H      1.539563     0.010333    -1.530712
O      3.180939     2.711158    -1.274503
H      3.074853     1.764894    -1.464202
H      3.301671     2.734238    -0.312760
O     -1.193012    -2.447398     1.257440
H     -0.570366    -3.151250     1.505719
H     -1.191337    -2.479162     0.284151
O      0.937741     4.095353    -1.540637
H      1.146346     4.853164    -2.087797
H      1.764901     3.571939    -1.531654
O      3.089565    -2.771165     1.310697
H      2.988183    -1.831364     1.531532
H      3.230656    -2.754009     0.351206
O     -3.886135     1.288857    -1.363973
H     -3.068096     1.757633    -1.590997
H     -3.976422     1.452694    -0.412444
O      3.022655     2.701799     1.584744
H      2.194761     3.224160     1.577646
H      3.599686     3.184890     2.176886
O      0.815588     4.140735     1.320077
H      0.004875     3.630555     1.478284
H      0.804924     4.287278     0.361616
O     -3.769597    -1.296025     1.398786
H     -2.914666    -1.713416     1.588395
H     -3.887821    -1.461766     0.450611
60
Frame 22
O      0.587683    -1.356161    -2.275099
H      0.603540    -0.439351    -2.586659
H      1.226910    -1.353746    -1.539706
O      1.121469    -4.242270     1.992411
H      1.593089    -4.870424     2.540075
H      1.574007    -4.291163     1.124311
O      0.456371    -4.212799    -2.370789
H      0.468543    -3.280770    -2.630696
H     -0.418206    -4.324110    -1.966486
O      2.369128    -1.317487    -0.207856
H      2.699414    -0.407654    -0.242898
H      1.835692    -1.336032     0.606886
O      0.908979    -1.472407     2.102459
H     -0.035939    -1.492459     1.866692
H      1.104735    -2.405889     2.290725
O     -1.663898    -4.257261     1.560728
H     -0.714838    -4.362974     1.740046
H     -1.827707    -3.326244     1.772331
O      2.304846    -4.183493    -0.337077
H      1.664759    -4.291202    -1.065669
H      2.582220    -3.261407    -0.424829
O     -1.742105    -1.431498     1.485521
H     -1.793162    -1.398744     0.513327
H     -1.953000    -0.524269     1.753806
O     -1.913157    -1.468621    -1.236616
H     -1.006621    -1.476373    -1.594150
H     -2.184466    -2.399841    -1.300892
O     -2.085075    -4.231746    -1.058937
H     -2.783688    -4.856479    -1.255383
H     -1.943519    -4.321949    -0.094906
O      0.443048     4.308230    -2.251920
H      0.664116     4.975520    -2.903529
H      1.110313     4.417335    -1.551317
O      1.101284     1.300176     2.069260
H      1.191017     0.378208     2.360150
H      1.515132     1.299370     1.188072
O      0.312578     1.480970    -2.266358
H     -0.545033     1.436891    -1.805141
H      0.365349     2.404471    -2.555695
O      2.196155     4.324829    -0.163437
H      1.726543     4.298624     0.696599
H      2.940815     4.905932    -0.001953
O      0.935502     4.105729     2.126473
H     -0.020554     4.215311     1.996605
H      1.025932     3.170006     2.363521
O     -1.591736     1.353589     1.674879
H     -0.626902     1.366342     1.807124
H     -1.849312     2.278637     1.818453
O      2.276013     1.478178    -0.382859
H      2.503144     2.420083    -0.342893
H      1.564711     1.452433    -1.048658
O     -1.817376     4.144485     1.578411
H     -2.477683     4.728815     1.953069
H     -1.964796     4.199082     0.612805
O     -2.149495     4.089644    -1.050530
H     -2.306534     3.146795    -1.215324
H     -1.302693     4.258817    -1.491211
O     -2.078592     1.286510    -1.001373
H     -2.307501     0.367206    -1.214779
H     -1.889040     1.254397    -0.046769
60
Frame 23
O      0.003651     1.927649     5.574560
H      0.775880     1.348868     5.674929
H      0.044530     2.199631     4.644788
O      1.968475    -0.146058     5.550744
H      1.306582    -0.861078     5.636052
H      2.640270    -0.359137     6.199377
O      0.146045     1.968543    -5.550781
H      0.359124     2.640229    -6.199338
H      0.861104     1.306557    -5.636055
O      1.927658    -0.003646    -5.574552
H      1.348863    -0.775885    -5.674929
H      2.199629    -0.044530    -4.644796
O      1.953626     0.092093    -2.760131
H      2.280293     0.024458    -1.848934
H      1.291058     0.803654    -2.710590
O     -1.953627    -0.092092    -2.760130
H     -2.280292    -0.024458    -1.848936
H     -1.291057    -0.803655    -2.710590
O      1.931726     0.099658     2.774573
H      2.209737     0.008127     3.701042
H      1.274039     0.817368     2.811246
O     -1.931729    -0.099656     2.774577
H     -1.274037    -0.817370     2.811246
H     -2.209737    -0.008127     3.701039
O     -0.003656    -1.927644     5.574564
H     -0.044531    -2.199632     4.644784
H     -0.775876    -1.348873     5.674929
O     -1.968364     0.146081     5.550683
H     -1.306624     0.861034     5.636047
H     -2.640337     0.359159     6.199441
O     -0.146021    -1.968660    -5.550845
H     -0.861151    -1.306512    -5.636059
H     -0.359101    -2.640158    -6.199270
O     -1.927653     0.003652    -5.574556
H     -1.348868     0.775880    -5.674929
H     -2.199630     0.044530    -4.644792
O     -1.944846     0.171073     0.012157
H     -1.260078     0.862378     0.044953
H     -2.253812     0.117598     0.930997
O     -0.092097     1.953620     2.760138
H     -0.024457     2.280295     1.848928
H     -0.803651     1.291061     2.710590
O     -0.099659     1.931725    -2.774569
H     -0.817367     1.274039    -2.811246
H     -0.008126     2.209737    -3.701045
O      0.099662    -1.931723    -2.774564
H      0.008126    -2.209737    -3.701049
H      0.817365    -1.274041    -2.811246
O      0.171074     1.944843    -0.012154
H      0.862377     1.260080    -0.044954
H      0.117598     2.253813    -0.931000
O     -0.171074    -1.944844    -0.012154
H     -0.117598    -2.253813    -0.930999
H     -0.862377    -1.260079    -0.044954
O      0.092096    -1.953621     2.760136
H      0.024457    -2.280295     1.848930
H      0.803652    -1.291061     2.710590
O      1.944846    -0.171072     0.012157
H      2.253812    -0.117598     0.930997
H      1.260078    -0.862379     0.044954
60
Frame 24
O      2.246721     3.120442     0.670953
H      1.521690     3.148784     1.321639
H      2.744950     3.921994     0.836586
O      3.716818     0.699590     0.895677
H      3.231945     1.531591     0.799102
H      3.638442     0.282680     0.017360
O      0.148678     3.105248     2.395031
H     -0.007403     3.760108     3.076330
H     -0.701889     3.067625     1.909443
O      1.056233     3.107954    -1.901952
H      1.504071     3.063206    -1.044163
H      1.364541     2.318266    -2.375708
O      2.608301    -0.755097     2.737051
H      3.294712    -0.894285     3.389837
H      3.047800    -0.219491     2.043473
O      0.316996     0.559590     3.682609
H      1.109439     0.101074     3.360630
H      0.334416     1.410829     3.222342
O      3.433636    -0.503729    -1.501913
H      2.979096    -1.347200    -1.364372
H      2.875616    -0.038043    -2.144678
O     -2.099911     3.016509     1.084474
H     -1.946422     3.068866     0.126753
H     -2.594415     2.189810     1.194888
O      1.799956     0.849045    -3.331239
H      0.988398     0.333173    -3.520431
H      2.178848     1.009234    -4.195814
O     -1.550066     3.116932    -1.622973
H     -1.838462     3.875876    -2.131100
H     -0.576987     3.115785    -1.735740
O      1.614541    -3.046262     1.528915
H      0.658151    -3.051653     1.694332
H      1.927311    -2.248644     1.985955
O     -1.880823    -0.902500     3.165373
H     -2.412563    -0.339768     2.585408
H     -1.099485    -0.355953     3.371704
O      2.227235    -3.057191    -0.987940
H      2.921267    -3.713442    -1.057469
H      2.003013    -3.054265    -0.033333
O     -3.555857     0.642931     1.419315
H     -4.429786     0.728517     1.802795
H     -3.690483     0.077808     0.636591
O     -0.341231    -0.557314    -3.774691
H     -0.293966    -1.393404    -3.289880
H     -1.136995    -0.122315    -3.416817
O     -2.510089     0.701159    -2.737413
H     -2.204995     1.521077    -2.319454
H     -2.930136     0.206928    -2.019145
O     -1.136846    -3.085110     1.984064
H     -1.429003    -3.786412     2.566932
H     -1.431356    -2.266682     2.436968
O     -0.069364    -3.033937    -2.387977
H     -0.075895    -3.796250    -2.968550
H      0.795735    -3.078705    -1.940763
O     -3.756536    -0.935822    -0.758810
H     -4.566821    -1.280492    -1.135487
H     -3.176243    -1.723216    -0.694115
O     -2.215690    -3.020879    -0.570426
H     -1.461971    -3.009191    -1.180447
H     -1.807110    -3.080764     0.308616
75
Frame 25
O     -1.300512    -0.676646     1.533393
H     -0.880165    -0.044823     0.922017
H     -1.836938    -1.228932     0.934983
O      2.753009     1.097395    -2.907684
H      2.237150     0.365686    -2.520815
H      2.978431     0.797006    -3.788857
O     -2.755804     1.090756     2.907575
H     -2.980422     0.789947     3.788746
H     -2.238051     0.360297     2.520787
O      4.463888     1.787634    -0.745762
H      3.984579     1.534551    -1.550539
H      3.957013     2.549577    -0.421707
O      0.994239    -1.838805     2.447185
H      0.149928    -1.450994     2.155920
H      0.790016    -2.788107     2.487545
O     -2.673705    -2.026174    -0.343121
H     -2.095095    -1.901448    -1.117304
H     -3.452009    -1.481307    -0.547781
O     -4.564659    -0.156323    -1.024193
H     -5.494493    -0.292934    -1.207867
H     -4.555513     0.562141    -0.359376
O     -0.989480    -1.841741    -2.446868
H     -0.146177    -1.451693    -2.155671
H     -0.782782    -2.790513    -2.487106
O      4.565041    -0.144314     1.024300
H      4.554054     0.574007     0.359362
H      5.495225    -0.278497     1.208008
O     -1.386418     3.467479     2.251117
H     -0.458061     3.192043     2.170297
H     -1.826536     2.679414     2.605373
O      2.582057     0.525376     2.939918
H      2.059530    -0.290149     2.949202
H      3.338263     0.303191     2.374877
O      1.193964     2.565978     1.849699
H      1.719422     1.869828     2.288150
H      1.837453     3.069890     1.327461
O      2.703733     3.878461    -0.035337
H      2.150033     3.810763    -0.840643
H      2.983962     4.793982    -0.015601
O     -0.208718    -4.485928    -2.026507
H     -0.099414    -5.210105    -2.643587
H      0.599787    -4.514261    -1.475072
O      1.302266    -0.673511    -1.533257
H      0.880281    -0.042679    -0.921985
H      1.840120    -1.224309    -0.934759
O     -1.816318    -4.570284     0.351663
H     -1.378333    -4.671577    -0.507936
H     -2.281179    -3.723392     0.251083
O     -1.200604     2.562564    -1.850105
H     -1.724271     1.864984    -2.288427
H     -1.845389     3.064909    -1.327955
O      0.220404    -4.485091     2.027157
H     -0.588026    -4.515605     1.475724
H      0.112988    -5.209462     2.644336
O     -0.001359     1.048033    -0.000072
H     -0.443510     1.643482    -0.630287
H      0.439241     1.644735     0.630039
O     -4.468474     1.776197     0.745525
H     -3.963579     2.539390     0.421326
H     -3.988498     1.524500     1.550343
O     -2.713759     3.871467     0.034703
H     -2.159879     3.805334     0.840024
H     -2.996360     4.786244     0.014817
O      2.678952    -2.019161     0.343476
H      3.455835    -1.472245     0.548069
H      2.100012    -1.895828     1.117636
O     -2.583452     0.518199    -2.939959
H     -2.058810    -0.295968    -2.949112
H     -3.339070     0.294152    -2.374866
O      1.377448     3.470654    -2.251677
H      1.819614     2.683681    -2.605800
H      0.449806     3.192824    -2.170814
O      1.828218    -4.565577    -0.351006
H      2.290864    -3.717462    -0.250527
H      1.390495    -4.667904     0.508606
