6
Frame 1
O     -0.072478    -1.498657     0.000000
H      0.055378    -0.542786    -0.000000
H      0.816150    -1.856160    -0.000000
O      0.088970     1.397791     0.000000
H     -0.424506     1.681903     0.758659
H     -0.424506     1.681903    -0.758659
9
Frame 2
O      0.923765    -1.317865     0.102032
H     -0.031200    -1.180516     0.038435
H      1.132574    -1.903915    -0.625574
O     -1.593972    -0.150965    -0.094414
H     -2.127022    -0.092998     0.699023
H     -1.008560     0.617436    -0.049111
O      0.660293     1.465747     0.086383
H      1.009772     1.954483    -0.658777
H      1.068673     0.591904     0.024685
12
Frame 3
O      1.921831    -0.007160    -0.021273
H      1.321868    -0.767717    -0.016105
H      2.458206    -0.123549     0.762648
O     -1.921831     0.007160    -0.021273
H     -1.321868     0.767717    -0.016105
H     -2.458206     0.123549     0.762648
O     -0.007160    -1.921831     0.021273
H     -0.767717    -1.321868     0.016105
H     -0.123549    -2.458206    -0.762648
O      0.007160     1.921831     0.021273
H      0.767717     1.321868     0.016105
H      0.123549     2.458206    -0.762648
15
Frame 4
O     -0.579338    -2.218663     0.119171
H     -1.209474    -1.489957     0.014350
H     -0.843936    -2.640129     0.936206
O     -2.281563    -0.140520    -0.136078
H     -1.785670     0.688120    -0.054859
H     -2.726085    -0.062855    -0.979782
O     -0.858166     2.148802     0.066026
H      0.090350     1.951984     0.046648
H     -0.985135     2.631690     0.881798
O      1.761086     1.448114    -0.066670
H      1.846848     0.482907    -0.061964
H      2.445747     1.746477     0.530889
O      1.930583    -1.246078    -0.043474
H      1.037515    -1.612380     0.044718
H      2.262119    -1.641648    -0.849162
18
Frame 5
O     -1.222787    -1.856833    -0.226251
H     -1.945569    -2.466493    -0.370188
H     -1.632990    -0.980010    -0.219988
O      1.048903    -1.107962     1.438853
H      1.446294    -1.094329     0.554493
H      0.218815    -1.567229     1.262267
O      0.266793     1.398762     1.466686
H      0.599247     0.494382     1.580926
H      0.475657     1.844391     2.286019
O      1.357856    -1.050863    -1.333111
H      0.484200    -1.455414    -1.269432
H      1.167313    -0.113451    -1.462585
O      0.582686     1.744398    -1.233369
H      1.077936     2.486329    -1.579968
H      0.641559     1.827738    -0.272273
O     -1.992233     0.736218    -0.161231
H     -1.510701     1.104263    -0.910330
H     -1.447159     1.020354     0.584614
18
Frame 6
O     -1.617555    -0.885067    -0.617617
H     -1.130221    -1.686589    -0.378762
H     -2.501374    -1.184994    -0.826422
O     -0.764329     0.790378     1.581016
H     -1.249254     0.278806     0.920105
H      0.100954     0.364194     1.579084
O      0.615574     0.674278    -1.598923
H     -0.229954     0.219843    -1.504126
H      0.440199     1.551670    -1.229559
O      1.654478    -0.588427     0.506200
H      2.581389    -0.399240     0.644302
H      1.414246    -0.093617    -0.293142
O      0.097281    -2.806216     0.203922
H      0.488719    -3.365318    -0.467553
H      0.778015    -2.143602     0.389776
O      0.056489     2.862187     0.002790
H     -0.319462     2.258322     0.659578
H     -0.581749     3.570252    -0.075588
18
Frame 7
O      1.570859    -0.121212     0.806203
H      1.505406    -0.966057     0.334487
H      2.119674    -0.315578     1.564879
O      1.178256    -2.435931    -0.447060
H      0.209078    -2.461239    -0.478077
H      1.442555    -2.486145    -1.365148
O     -1.485074    -2.220132    -0.455851
H     -2.016322    -2.839703     0.042731
H     -1.559175    -1.388034     0.037627
O     -1.368931     2.441872    -0.440804
H     -0.405434     2.509470    -0.500673
H     -1.635240     3.233382     0.026895
O      1.378913     2.328737    -0.427904
H      1.518159     1.467426    -0.010181
H      1.825105     2.258857    -1.271814
O     -1.357637     0.037420     0.960525
H     -0.402878     0.050137     1.089324
H     -1.525430     0.859748     0.478550
18
Frame 8
O      2.682560     0.006220    -0.116107
H      2.179262    -0.815418    -0.011323
H      3.183937    -0.133574    -0.918661
O     -1.346667     2.320055    -0.116108
H     -0.383458     2.295005    -0.011323
H     -1.476290     2.824157    -0.918661
O     -1.335893    -2.326275    -0.116107
H     -1.795804    -1.479587    -0.011323
H     -1.707647    -2.690583    -0.918661
O     -2.682560    -0.006220     0.116107
H     -2.179262     0.815418     0.011323
H     -3.183937     0.133574     0.918661
O      1.346667    -2.320055     0.116108
H      0.383458    -2.295005     0.011323
H      1.476290    -2.824157     0.918661
O      1.335893     2.326275     0.116107
H      1.795804     1.479587     0.011323
H      1.707647     2.690583     0.918661
21
Frame 9
O      1.060100    -1.263146    -1.352306
H      0.282435    -1.564003    -0.854473
H      1.255330    -1.980073    -1.953169
O      2.495869    -0.033778     0.730099
H      2.192779    -0.621106     0.023517
H      2.444959     0.831294     0.311104
O      0.204320    -0.147163     2.127170
H      1.098652    -0.114219     1.756954
H      0.329635    -0.193036     3.074086
O     -0.974796    -1.866339     0.167653
H     -0.684093    -1.408507     0.965531
H     -1.709613    -1.320281    -0.147783
O     -1.062338     1.800567     0.441438
H     -0.353453     1.814565    -0.214483
H     -0.705739     1.242008     1.143323
O     -2.779491     0.031425    -0.661335
H     -3.656496     0.139981    -0.295412
H     -2.262852     0.758292    -0.281914
O      1.064655     1.481394    -1.431262
H      0.975540     1.906519    -2.284005
H      0.997997     0.534606    -1.615931
24
Frame 10
O      1.341954    -1.438652     1.337839
H      0.392703    -1.531665     1.489035
H      1.500683    -0.498160     1.489033
O     -1.341954     1.438652     1.337839
H     -0.392703     1.531665     1.489035
H     -1.500683     0.498159     1.489033
O      1.486165     1.386271     1.313877
H      1.565735     1.460488     0.350249
H      2.136881     1.993247     1.663393
O     -1.486165    -1.386271     1.313876
H     -1.565735    -1.460489     0.350249
H     -2.136882    -1.993246     1.663394
O      1.438652     1.341954    -1.337839
H      0.498159     1.500683    -1.489033
H      1.531665     0.392703    -1.489035
O     -1.438652    -1.341954    -1.337839
H     -0.498160    -1.500683    -1.489033
H     -1.531665    -0.392703    -1.489035
O      1.386271    -1.486165    -1.313876
H      1.460488    -1.565735    -0.350249
H      1.993246    -2.136881    -1.663394
O     -1.386271     1.486165    -1.313876
H     -1.460488     1.565735    -0.350249
H     -1.993246     2.136881    -1.663394
24
Frame 11
O      0.017232     1.954563    -1.443292
H      0.773368     1.352439    -1.521525
H      0.195441     2.658315    -2.065457
O     -0.017232    -1.954563    -1.443292
H     -0.773369    -1.352439    -1.521525
H     -0.195442    -2.658315    -2.065457
O      1.918262     0.123102    -1.378517
H      1.393123    -0.677070    -1.507676
H      2.118514     0.104977    -0.433681
O     -1.918261    -0.123101    -1.378517
H     -1.393123     0.677069    -1.507676
H     -2.118514    -0.104976    -0.433680
O      1.954561    -0.017232     1.443291
H      1.352440    -0.773368     1.521525
H      2.658316    -0.195442     2.065457
O     -1.954563     0.017232     1.443292
H     -1.352439     0.773369     1.521525
H     -2.658315     0.195442     2.065458
O     -0.123102     1.918262     1.378517
H      0.677070     1.393123     1.507676
H     -0.104976     2.118514     0.433681
O      0.123101    -1.918261     1.378518
H     -0.677070    -1.393123     1.507676
H      0.104977    -2.118514     0.433680
27
Frame 12
O     -0.416329     1.082479    -2.010203
H      0.313117     1.421106    -1.475363
H     -1.195219     1.281015    -1.475779
O     -0.313644    -1.070401     2.099402
H     -0.299802    -0.101286     2.058354
H     -0.346383    -1.273802     3.032893
O     -2.374527    -1.364424     0.179908
H     -1.811136    -1.593555    -0.570622
H     -1.767490    -1.407768     0.929902
O     -0.397440    -1.561381    -1.836299
H     -0.429029    -1.953801    -2.707484
H     -0.360062    -0.605508    -1.996498
O      1.569024     2.015464    -0.219120
H      2.042229     2.819047    -0.430045
H      2.258297     1.336668    -0.153275
O     -2.500038     1.267419    -0.107427
H     -3.396140     1.597825    -0.149916
H     -2.590140     0.307667    -0.003012
O      3.272600    -0.000138    -0.073415
H      3.881531    -0.085367     0.658860
H      2.685207    -0.767613     0.015623
O     -0.394988     1.554770     1.749368
H     -1.182781     1.618336     1.195031
H      0.322062     1.791701     1.147292
O      1.531214    -2.001539     0.178407
H      0.943503    -1.965557    -0.587043
H      0.951414    -1.761259     0.912149
30
Frame 13
O     -0.804058     2.353945    -1.208439
H     -1.158788     3.086242    -1.711195
H     -1.442108     1.636756    -1.329818
O      1.835696     1.365063    -1.364487
H      0.949995     1.746340    -1.409240
H      2.043101     1.388730    -0.421466
O     -2.417718     0.184697    -1.306940
H     -3.219173     0.022492    -1.802299
H     -1.901289    -0.631137    -1.411539
O      1.682243    -1.244613    -1.726875
H      1.758505    -0.278286    -1.686612
H      2.300866    -1.508384    -2.406340
O      2.130883     1.047791     1.411396
H      2.100513     0.078462     1.388391
H      2.891231     1.253721     1.953059
O      1.949659    -1.567720     1.089517
H      1.049066    -1.841971     1.307850
H      1.966493    -1.606677     0.125451
O     -2.157524    -0.025806     1.595490
H     -2.433184     0.093097     0.680177
H     -1.567058     0.728723     1.743744
O     -0.747226    -2.219685     1.400148
H     -1.123595    -2.885648     1.973255
H     -1.279048    -1.424457     1.565885
O     -0.978935    -2.005112    -1.397002
H     -0.067096    -1.784968    -1.628443
H     -0.919631    -2.246612    -0.463925
O     -0.468375     2.127836     1.647596
H      0.435612     1.789843     1.686477
H     -0.568159     2.397339     0.727383
33
Frame 14
O      1.893443    -1.986957    -1.364927
H      2.578792    -2.451412    -1.843160
H      1.848254    -1.111681    -1.778472
O     -0.855552     2.691528    -0.489907
H      0.109084     2.712637    -0.543673
H     -1.089225     1.866634    -0.932878
O      1.471097    -1.604497     1.446577
H      1.722307    -1.767773     0.529690
H      0.578079    -1.964372     1.504916
O      1.443728     0.417088    -2.378215
H      0.482251     0.428695    -2.331306
H      1.709677     1.087543    -1.733871
O     -0.863657    -2.328690    -1.432885
H      0.099592    -2.373221    -1.486593
H     -1.046213    -2.552885    -0.511490
O     -1.244262    -2.483740     1.321011
H     -1.731486    -3.124087     1.837349
H     -1.788133    -1.681767     1.337643
O     -2.575108    -0.220951     1.066210
H     -2.160958     0.503687     1.553843
H     -2.381047    -0.007445     0.147465
O     -1.498545     0.196111    -1.727109
H     -2.124402     0.202853    -2.450879
H     -1.271345    -0.744766    -1.627083
O     -1.183412     1.987646     2.047867
H     -1.564895     2.674092     2.593759
H     -1.104002     2.381141     1.165635
O      1.561671     1.079395     1.890630
H      0.659091     1.310689     2.132783
H      1.537482     0.118068     1.773646
O      1.906488     2.273152    -0.387485
H      2.618418     2.905793    -0.309630
H      1.867884     1.835355     0.478811
48
Frame 15
O      2.227589     2.794334     0.926230
H      1.376488     3.183902     1.158851
H      2.304507     2.968855    -0.021294
O      1.531760    -3.341145    -0.581468
H      0.658370    -3.713515    -0.403872
H      1.872199    -3.133383     0.296883
O     -1.513822    -0.235331    -1.159971
H     -0.591436    -0.489670    -1.306866
H     -1.652199     0.482609    -1.791135
O      1.321770     1.203325    -3.232492
H      1.353311     0.417321    -2.669222
H      0.378384     1.389387    -3.304003
O     -2.882557    -2.340787    -0.006396
H     -2.514955    -1.615535    -0.529889
H     -2.866794    -1.996787     0.894372
O      2.122378    -2.220854     1.997028
H      2.013461    -1.285843     1.768317
H      2.915384    -2.250098     2.530750
O     -1.196504     0.810022     1.310373
H     -1.600480     0.150663     1.889908
H     -1.387570     0.475275     0.422534
O      1.121596    -0.784717    -1.353892
H      1.365275    -0.427567    -0.490426
H      1.278859    -1.735241    -1.246442
O     -0.581230     3.986114    -1.455343
H     -0.673770     3.844109    -0.504963
H      0.370021     3.907147    -1.601935
O     -0.398362    -3.209367     2.760168
H     -0.584109    -3.705683     1.953010
H      0.491468    -2.864332     2.611676
O     -1.031888    -4.223381     0.220428
H     -1.426560    -5.070594     0.018747
H     -1.738450    -3.579493     0.055294
O      1.509578     0.221322     1.194584
H      1.916590     1.098465     1.120230
H      0.576213     0.428888     1.328269
O      2.115987     3.287442    -1.833708
H      2.761158     3.767532    -2.350777
H      1.910336     2.504107    -2.368788
O     -1.444499     1.923505    -2.857658
H     -1.216832     2.717388    -2.348576
H     -2.077566     2.224706    -3.507564
O     -2.239663    -1.343555     2.626409
H     -1.550146    -2.013211     2.762343
H     -2.777597    -1.388031     3.415383
O     -0.552596     3.393443     1.314897
H     -0.873748     2.486160     1.420294
H     -1.023085     3.898375     1.976994
48
Frame 16
O      1.336079    -1.506207     1.280038
H      0.369986    -1.487742     1.314257
H      1.590321    -0.617866     1.560315
O     -1.202308    -4.348575     0.979358
H     -0.235024    -4.412473     1.012214
H     -1.514238    -5.074785     1.517679
O     -1.515204     1.508707    -1.071159
H     -1.521085     1.423666    -0.107658
H     -1.668563     2.451488    -1.213888
O      1.232186     1.560194    -1.316910
H      1.515590     0.683249    -1.605013
H      0.267162     1.500768    -1.322774
O     -1.280233    -1.209892    -1.605923
H     -1.569272    -0.290693    -1.668389
H     -0.315703    -1.147257    -1.630444
O     -1.292824    -4.016700    -1.853200
H     -1.524511    -3.081052    -1.904306
H     -1.422965    -4.233036    -0.921381
O      1.242969     4.346994    -0.895552
H      1.405219     4.337792     0.056093
H      1.470545     3.451247    -1.174036
O     -1.416953    -1.571265     1.115139
H     -1.526252    -2.519640     1.261299
H     -1.454781    -1.486756     0.152315
O      1.250274     4.000608     1.936410
H      1.582476     4.581756     2.619338
H      0.284867     4.050032     2.016088
O      1.462742     1.270242     1.406449
H      1.579506     2.158032     1.768278
H      1.467611     1.415250     0.450124
O      1.361532    -3.944440    -1.975751
H      1.697824    -4.510793    -2.669028
H      0.397159    -4.034750    -2.027087
O     -1.407249     3.960252     1.891948
H     -1.573859     4.169823     0.964399
H     -1.597686     3.015744     1.949852
O     -1.414154     4.292549    -0.942017
H     -0.451831     4.397394    -1.003225
H     -1.772274     5.004147    -1.471020
O      1.474044    -1.207827    -1.448642
H      1.617440    -2.089971    -1.814685
H      1.513210    -1.352247    -0.493020
O      1.452327    -4.290420     0.854800
H      1.649970    -3.385868     1.127597
H      1.586020    -4.274424    -0.101186
O     -1.283353     1.155780     1.644399
H     -1.531122     0.225193     1.714973
H     -0.316727     1.134141     1.640703
48
Frame 17
O      1.451794     1.412788     1.276565
H      1.484131     1.443037     0.310009
H      1.597156     2.333054     1.531114
O     -1.451794    -1.412788     1.276565
H     -1.597156    -2.333054     1.531114
H     -1.484131    -1.443037     0.310009
O      1.426973    -4.180395     1.290976
H      0.486142    -4.281819     1.482986
H      1.598233    -3.253283     1.499096
O      1.280199    -1.365661     1.468508
H      1.555358    -0.458889     1.652624
H      0.314358    -1.317718     1.481347
O     -1.280199    -1.365661    -1.468508
H     -1.555358    -0.458889    -1.652624
H     -0.314358    -1.317718    -1.481347
O      1.426973     4.180395    -1.290976
H      0.486142     4.281818    -1.482986
H      1.598233     3.253283    -1.499096
O     -1.431004     4.211134    -1.352965
H     -1.509724     4.298681    -0.390032
H     -2.034788     4.861340    -1.709574
O      1.431004    -4.211135    -1.352967
H      2.034790    -4.861338    -1.709574
H      1.509724    -4.298681    -0.390031
O     -1.431004    -4.211135     1.352967
H     -1.509724    -4.298681     0.390031
H     -2.034789    -4.861338     1.709574
O     -1.426973     4.180395     1.290976
H     -0.486142     4.281818     1.482986
H     -1.598233     3.253283     1.499096
O      1.451794    -1.412788    -1.276565
H      1.484131    -1.443037    -0.310009
H      1.597156    -2.333054    -1.531114
O     -1.451794     1.412788    -1.276565
H     -1.597156     2.333054    -1.531114
H     -1.484131     1.443037    -0.310009
O      1.431003     4.211134     1.352965
H      1.509724     4.298680     0.390032
H      2.034788     4.861340     1.709574
O     -1.426972    -4.180395    -1.290976
H     -0.486142    -4.281819    -1.482986
H     -1.598233    -3.253283    -1.499096
O      1.280199     1.365661    -1.468507
H      1.555358     0.458889    -1.652625
H      0.314358     1.317718    -1.481347
O     -1.280199     1.365661     1.468507
H     -0.314358     1.317718     1.481347
H     -1.555358     0.458889     1.652625
48
Frame 18
O      0.221819     1.120241    -1.624728
H     -0.646328     1.479343    -1.846222
H      0.080208     0.164795    -1.578800
O      4.132325    -0.243681    -1.253653
H      4.896196    -0.216129    -1.827755
H      3.673448     0.595391    -1.418229
O     -2.350552     2.151655    -1.795032
H     -2.559788     2.962507    -2.256509
H     -2.424287     2.375924    -0.853155
O     -4.132595     0.243692     1.252721
H     -3.673814    -0.595389     1.417507
H     -4.896815     0.216102     1.826357
O      2.723841     2.323072     1.395677
H      3.253179     1.524551     1.549395
H      3.120812     2.989801     1.953746
O      2.504689    -2.461419    -0.800789
H      1.623443    -2.207033    -1.101474
H      3.068781    -1.725351    -1.069644
O     -2.504126     2.461196     0.801291
H     -1.623020     2.206385     1.102029
H     -3.068527     1.725210     1.069711
O     -2.723739    -2.322978    -1.396100
H     -3.252695    -1.524248    -1.550040
H     -3.120584    -2.989471    -1.954547
O     -2.809293    -2.023316     1.465139
H     -1.888259    -1.777888     1.628545
H     -2.807986    -2.315468     0.545974
O      4.093003     0.082715     1.556377
H      3.529618    -0.656638     1.817377
H      4.263111    -0.091946     0.621822
O     -0.114835    -1.520717    -1.095144
H     -0.963220    -1.905637    -1.351854
H     -0.197664    -1.419129    -0.137129
O      2.808892     2.023266    -1.465491
H      1.887887     1.777475    -1.628520
H      2.807817     2.315404    -0.546318
O     -4.092225    -0.082187    -1.557272
H     -3.528846     0.657253    -1.818030
H     -4.262619     0.092368    -0.622749
O     -0.221784    -1.121113     1.625378
H      0.646412    -1.480081     1.846911
H     -0.080218    -0.165656     1.579449
O      2.351437    -2.150997     1.795464
H      2.425117    -2.375548     0.853646
H      2.561696    -2.961440     2.257189
O      0.115069     1.519794     1.095789
H      0.963384     1.904960     1.352367
H      0.197844     1.418168     0.137775
48
Frame 19
O      0.117929     0.515182    -1.902988
H      0.079641    -0.379690    -1.538291
H     -0.782214     0.680726    -2.210024
O      2.591699    -0.912273     2.371622
H      2.981616    -1.166725     3.206572
H      3.131918    -0.165502     2.067350
O     -4.036094    -1.118073    -1.274020
H     -3.555980    -0.457187    -1.788706
H     -4.223972    -0.657054    -0.446440
O     -2.570211     1.087427    -2.322944
H     -2.680849     1.602165    -1.507076
H     -2.889786     1.659944    -3.018888
O     -0.082933    -0.552548     1.890652
H      0.829544    -0.688516     2.177690
H     -0.079724     0.346497     1.533791
O      4.026039     1.024329     1.323759
H      3.499343     1.808349     1.123655
H      4.218364     0.658796     0.450855
O     -2.527815    -1.771492     2.182160
H     -1.643978    -1.379634     2.204906
H     -2.497272    -2.362606     1.420705
O      2.776617    -2.250152    -0.168402
H      1.850423    -2.236138    -0.444400
H      2.733538    -1.977425     0.756004
O     -2.429965    -3.014770    -0.414148
H     -2.724852    -3.869322    -0.724525
H     -3.047627    -2.380022    -0.810196
O      2.522291     1.840863    -2.031937
H      1.669661     1.393396    -2.119485
H      3.137731     1.116724    -1.859845
O      2.386365     3.085068     0.253914
H      2.565158     4.021483     0.182551
H      2.470938     2.741589    -0.650287
O     -0.068111     1.791007     0.531898
H      0.056017     1.397989    -0.343291
H      0.694223     2.377721     0.618930
O     -2.783773     2.225370     0.027562
H     -1.879025     2.196377     0.362787
H     -3.251863     1.562261     0.550497
O     -4.120087     0.119491     1.269108
H     -4.876576     0.200247     1.847930
H     -3.563056    -0.555337     1.688594
O      4.153423    -0.255126    -1.195878
H      3.659971    -1.036063    -0.898211
H      4.928158    -0.611256    -1.628028
O      0.040552    -1.820540    -0.517978
H     -0.746265    -2.375898    -0.596549
H     -0.063120    -1.406671     0.349874
51
Frame 20
O     -0.011796    -0.104731     0.077384
H     -0.554245    -0.755814     0.541040
H      0.247802     0.496169     0.788094
O     -1.393934    -1.995734     1.552575
H     -1.898052    -2.322657     0.795513
H     -0.659563    -2.619643     1.623652
O      0.678784     1.456622     2.237247
H      0.706023     2.325266     1.815118
H      1.596285     1.154266     2.203830
O      1.668187    -1.393541    -1.597124
H      1.895915    -0.736409    -2.266947
H      1.121344    -0.887547    -0.979793
O     -0.862900     1.165551    -2.155379
H     -0.559957     0.696810    -1.365254
H     -0.064735     1.219597    -2.695166
O     -2.539260    -2.571053    -0.880152
H     -3.294190    -3.126719    -1.068240
H     -2.828496    -1.682041    -1.143610
O      3.175421     0.520387     1.579257
H      3.130356    -0.417149     1.329232
H      4.013852     0.598389     2.031979
O      0.694054     3.685581     0.647725
H     -0.164720     3.620397     0.198996
H      0.771165     4.609001     0.881860
O     -3.249333     1.538797     0.789799
H     -2.767271     1.147577     1.536508
H     -4.073488     1.833170     1.174912
O     -1.570604     3.343152    -0.595837
H     -2.186117     2.834819    -0.051725
H     -1.329222     2.712262    -1.287868
O      2.720796     2.239695    -0.684739
H      2.939231     1.617633     0.020477
H      2.043835     2.801139    -0.286352
O     -3.285539    -0.127803    -1.510340
H     -3.341032     0.409348    -0.708829
H     -2.572954     0.293427    -2.006413
O      0.786061    -3.689724     1.199276
H      0.550716    -3.784802     0.262091
H      0.885503    -4.585417     1.519283
O      1.885343     1.082757    -2.915740
H      2.238790     1.546895    -2.140581
H      2.408008     1.401078    -3.650316
O     -1.900614     0.437163     2.791679
H     -1.007618     0.804902     2.775270
H     -1.774681    -0.478551     2.509860
O      0.056364    -3.621049    -1.322968
H      0.616784    -2.901296    -1.641667
H     -0.829347    -3.238212    -1.298405
O      3.076507    -1.980367     0.745869
H      2.376452    -2.542254     1.101417
H      2.803936    -1.861593    -0.173583
60
Frame 21
O     -1.326471     2.359411     1.393519
H     -0.900275     1.499009     1.512327
H     -2.258043     2.165186     1.560698
O     -1.357669     2.563163    -1.310489
H     -1.329966     2.597372    -0.343788
H     -0.647007     3.161143    -1.577392
O     -0.100130    -0.001128     1.489948
H     -0.448605    -0.900992     1.538683
H      0.859300    -0.097815     1.543439
O      2.597405    -0.011143     1.278557
H      2.611399     0.053226     0.313419
H      2.833323     0.881446     1.564067
O     -3.859208    -1.352027    -1.465943
H     -4.616309    -1.613963    -1.987849
H     -3.856670    -0.382324    -1.515795
O      0.896727    -4.215366     1.489642
H      1.063799    -4.957312     2.068668
H      1.714165    -3.692813     1.518975
O      2.982372    -2.708013    -1.553108
H      3.583456    -3.159237    -2.144037
H      2.176124    -3.248693    -1.570650
O     -0.189698     0.112927    -1.241072
H     -0.614706     0.952980    -1.465595
H     -0.189775     0.128281    -0.274230
O     -1.273316    -2.330338    -1.474846
H     -2.217581    -2.157321    -1.587121
H     -0.886201    -1.446412    -1.544139
O     -3.882484     1.337436     1.505545
H     -4.616324     1.569153     2.072856
H     -3.832854     0.369232     1.557211
O      0.790605    -4.169576    -1.377827
H      0.765553    -4.361631    -0.432975
H      0.002958    -3.628388    -1.523203
O      2.506308     0.010470    -1.447871
H      2.755415    -0.908650    -1.610427
H      1.543617     0.008997    -1.530780
O      3.181307     2.708776    -1.272780
H      3.075249     1.767424    -1.462896
H      3.301042     2.733200    -0.315787
O     -1.191180    -2.449251     1.255708
H     -0.572030    -3.147964     1.504417
H     -1.190495    -2.479571     0.289012
O      0.940882     4.094674    -1.541464
H      1.146945     4.852083    -2.087236
H      1.761236     3.575407    -1.532109
O      3.089351    -2.768732     1.308749
H      2.988916    -1.833763     1.529917
H      3.229919    -2.753331     0.354067
O     -3.884533     1.290168    -1.361980
H     -3.070476     1.756867    -1.589395
H     -3.975350     1.452289    -0.415088
O      3.020364     2.704238     1.585667
H      2.199541     3.222722     1.578022
H      3.598494     3.184984     2.176070
O      0.813736     4.140001     1.318320
H      0.007231     3.632208     1.477072
H      0.804304     4.286496     0.364764
O     -3.767808    -1.297376     1.396755
H     -2.917142    -1.713082     1.586829
H     -3.886516    -1.461154     0.453304
60
Frame 22
O      0.589676    -1.353862    -2.273707
H      0.604061    -0.441856    -2.585085
H      1.224260    -1.352827    -1.542953
O      1.123596    -4.243351     1.989552
H      1.592607    -4.869773     2.538466
H      1.572566    -4.291459     1.129187
O      0.453844    -4.211582    -2.371449
H      0.468022    -3.282736    -2.629531
H     -0.415840    -4.322948    -1.967485
O      2.368375    -1.315489    -0.205592
H      2.697712    -0.410205    -0.242072
H      1.838499    -1.335183     0.603617
O      0.906544    -1.475201     2.102404
H     -0.031777    -1.493011     1.867922
H      1.103020    -2.402434     2.289573
O     -1.661603    -4.255014     1.561035
H     -0.717892    -4.361878     1.739674
H     -1.826585    -3.328515     1.772279
O      2.303313    -4.181863    -0.339075
H      1.667648    -4.290259    -1.062587
H      2.581256    -3.263815    -0.424812
O     -1.742615    -1.428808     1.483137
H     -1.793342    -1.397874     0.517587
H     -1.952402    -0.526598     1.751742
O     -1.910717    -1.471509    -1.237409
H     -1.010800    -1.477024    -1.593059
H     -2.182272    -2.396275    -1.301136
O     -2.085122    -4.232985    -1.055632
H     -2.782878    -4.855622    -1.254560
H     -1.944858    -4.322528    -0.099651
O      0.445183     4.309072    -2.250760
H      0.664140     4.974582    -2.902404
H      1.107833     4.417468    -1.553892
O      1.103026     1.297604     2.067741
H      1.191166     0.380835     2.358001
H      1.513167     1.298601     1.192120
O      0.309992     1.482939    -2.265840
H     -0.541393     1.437654    -1.807415
H      0.364446     2.401231    -2.554044
O      2.195023     4.325458    -0.159991
H      1.729735     4.299484     0.692676
H      2.939209     4.904833    -0.001808
O      0.933230     4.103559     2.126247
H     -0.017649     4.214173     1.997041
H      1.024769     3.172515     2.362987
O     -1.589497     1.356416     1.675468
H     -0.631103     1.367032     1.806724
H     -1.847254     2.275313     1.818194
O      2.274708     1.480472    -0.385045
H      2.501639     2.416811    -0.343569
H      1.567677     1.453167    -1.045755
O     -1.818667     4.145569     1.575455
H     -2.476874     4.728069     1.952053
H     -1.964839     4.199734     0.617803
O     -2.147801     4.087780    -1.051917
H     -2.305454     3.149384    -1.215167
H     -1.305060     4.257423    -1.489963
O     -2.078693     1.283666    -0.999133
H     -2.306349     0.369825    -1.212823
H     -1.890198     1.253605    -0.051019
60
Frame 23
O      0.005670     1.927135     5.572973
H      0.773566     1.350820     5.673619
H      0.045127     2.198440     4.647477
O      1.966648    -0.148616     5.551956
H      1.310405    -0.858034     5.635952
H      2.638922    -0.359334     6.198510
O      0.148617     1.966647    -5.551955
H      0.359334     2.638922    -6.198511
H      0.858034     1.310406    -5.635952
O      1.927135    -0.005670    -5.572973
H      1.350820    -0.773566    -5.673618
H      2.198441    -0.045128    -4.647477
O      1.952714     0.094517    -2.757723
H      2.278410     0.025175    -1.851614
H      1.294041     0.800785    -2.709971
O     -1.952714    -0.094517    -2.757724
H     -2.278410    -0.025175    -1.851615
H     -1.294040    -0.800785    -2.709971
O      1.930808     0.101621     2.777170
H      2.208128     0.008832     3.697737
H      1.277621     0.814258     2.811787
O     -1.930808    -0.101622     2.777170
H     -1.277621    -0.814258     2.811787
H     -2.208128    -0.008832     3.697737
O     -0.005670    -1.927135     5.572973
H     -0.045128    -2.198440     4.647476
H     -0.773566    -1.350820     5.673619
O     -1.966649     0.148616     5.551957
H     -1.310404     0.858035     5.635951
H     -2.638921     0.359334     6.198509
O     -0.148618    -1.966646    -5.551954
H     -0.858033    -1.310406    -5.635951
H     -0.359334    -2.638922    -6.198512
O     -1.927135     0.005670    -5.572973
H     -1.350820     0.773566    -5.673619
H     -2.198441     0.045128    -4.647476
O     -1.944288     0.173400     0.014546
H     -1.263115     0.859158     0.045448
H     -2.252163     0.118116     0.928168
O     -0.094517     1.952714     2.757723
H     -0.025175     2.278410     1.851615
H     -0.800785     1.294041     2.709971
O     -0.101621     1.930808    -2.777170
H     -0.814258     1.277621    -2.811787
H     -0.008832     2.208128    -3.697737
O      0.101621    -1.930808    -2.777170
H      0.008832    -2.208128    -3.697737
H      0.814258    -1.277621    -2.811787
O      0.173399     1.944288    -0.014546
H      0.859158     1.263115    -0.045448
H      0.118116     2.252163    -0.928168
O     -0.173400    -1.944288    -0.014546
H     -0.118116    -2.252163    -0.928168
H     -0.859158    -1.263115    -0.045448
O      0.094517    -1.952714     2.757724
H      0.025175    -2.278411     1.851615
H      0.800786    -1.294041     2.709971
O      1.944288    -0.173399     0.014546
H      2.252163    -0.118115     0.928168
H      1.263115    -0.859158     0.045449
60
Frame 24
O      2.244945     3.121388     0.673295
H      1.524490     3.149469     1.319407
H      2.744178     3.920964     0.836467
O      3.714991     0.700144     0.893074
H      3.233432     1.528649     0.798800
H      3.638259     0.285388     0.021138
O      0.145364     3.106178     2.393547
H     -0.007778     3.759248     3.074962
H     -0.698173     3.068482     1.912409
O      1.057908     3.105151    -1.900574
H      1.503168     3.062022    -1.047090
H      1.363337     2.320331    -2.372711
O      2.610880    -0.753435     2.735309
H      3.294528    -0.893965     3.388458
H      3.045846    -0.222076     2.047374
O      0.319935     0.560564     3.681360
H      1.107079     0.103144     3.360479
H      0.334627     1.407654     3.222677
O      3.431400    -0.504555    -1.503944
H      2.979561    -1.344143    -1.365258
H      2.876815    -0.039984    -2.142782
O     -2.100026     3.013788     1.082436
H     -1.947079     3.067698     0.130470
H     -2.593239     2.192467     1.193530
O      1.797206     0.847356    -3.332971
H      0.992447     0.335737    -3.519842
H      2.177318     1.008645    -4.195082
O     -1.546494     3.117389    -1.624412
H     -1.837156     3.875140    -2.129955
H     -0.581536     3.116171    -1.735829
O      1.612395    -3.043543     1.530312
H      0.661490    -3.050502     1.694214
H      1.925050    -2.250728     1.983895
O     -1.879681    -0.899322     3.163891
H     -2.410284    -0.340860     2.586691
H     -1.103685    -0.357428     3.369957
O      2.227123    -3.057852    -0.983711
H      2.919986    -3.712578    -1.056395
H      2.004970    -3.054912    -0.037286
O     -3.557156     0.641224     1.417277
H     -4.428776     0.728695     1.801787
H     -3.690281     0.079780     0.639776
O     -0.343319    -0.557869    -3.772197
H     -0.294564    -1.390358    -3.290810
H     -1.133615    -0.125202    -3.417876
O     -2.510868     0.702507    -2.734589
H     -2.206115     1.518165    -2.319706
H     -2.928469     0.208995    -2.020375
O     -1.138457    -3.082679     1.986281
H     -1.428682    -3.785114     2.566146
H     -1.430005    -2.271184     2.435291
O     -0.066993    -3.035140    -2.387254
H     -0.075644    -3.795339    -2.967848
H      0.792461    -3.078664    -1.943112
O     -3.754951    -0.939613    -0.758798
H     -4.565011    -1.280759    -1.134978
H     -3.179766    -1.720353    -0.694529
O     -2.212229    -3.019895    -0.569671
H     -1.463826    -3.009568    -1.177725
H     -1.807576    -3.080300     0.304948
75
Frame 25
O     -1.300513    -0.675794     1.529017
H     -0.882044    -0.047646     0.923614
H     -1.833629    -1.226131     0.937447
O      2.751562     1.094509    -2.907479
H      2.239498     0.368101    -2.523029
H      2.977723     0.796605    -3.787484
O     -2.754337     1.087872     2.907340
H     -2.979719     0.789539     3.787397
H     -2.240412     0.362716     2.523006
O      4.461388     1.788561    -0.746514
H      3.985959     1.535471    -1.547548
H      3.958293     2.546825    -0.423678
O      0.990792    -1.839995     2.446315
H      0.152904    -1.453377     2.157361
H      0.790274    -2.784344     2.487302
O     -2.674676    -2.024733    -0.346830
H     -2.098766    -1.901335    -1.114538
H     -3.448534    -1.482670    -0.547676
O     -4.565725    -0.153947    -1.021909
H     -5.493226    -0.291981    -1.207381
H     -4.556299     0.558829    -0.362710
O     -0.986029    -1.842922    -2.445999
H     -0.149147    -1.454085    -2.157109
H     -0.783050    -2.786750    -2.486864
O      4.566103    -0.141937     1.022016
H      4.554847     0.570699     0.362694
H      5.493955    -0.277548     1.207522
O     -1.384704     3.464827     2.251836
H     -0.460773     3.192060     2.170860
H     -1.823943     2.681576     2.603997
O      2.583007     0.523110     2.939378
H      2.060834    -0.288246     2.948892
H      3.335024     0.303252     2.376102
O      1.197543     2.564987     1.849757
H      1.717854     1.873880     2.285658
H      1.835385     3.067266     1.329988
O      2.701567     3.879439    -0.038396
H      2.152741     3.812051    -0.837124
H      2.983300     4.792740    -0.016830
O     -0.205587    -4.486615    -2.025329
H     -0.098760    -5.209402    -2.642045
H      0.596440    -4.514783    -1.478466
O      1.302264    -0.672659    -1.528883
H      0.882169    -0.045498    -0.923582
H      1.836803    -1.221516    -0.937222
O     -1.816421    -4.568342     0.349426
H     -1.380483    -4.670624    -0.505549
H     -2.279631    -3.725806     0.251129
O     -1.204181     2.561562    -1.850163
H     -1.722714     1.869040    -2.285938
H     -1.843314     3.062289    -1.330481
O      0.217274    -4.485783     2.025978
H     -0.584677    -4.516120     1.479118
H      0.112332    -5.208762     2.642794
O     -0.001366     1.052058    -0.000073
H     -0.441094     1.641363    -0.626278
H      0.436832     1.642609     0.626032
O     -4.465976     1.777130     0.746278
H     -3.964852     2.536636     0.423297
H     -3.989882     1.525416     1.547351
O     -2.711593     3.872446     0.037764
H     -2.162592     3.806617     0.836503
H     -2.995696     4.785008     0.016046
O      2.679919    -2.017717     0.347185
H      3.452364    -1.473616     0.547963
H      2.103683    -1.895707     1.114871
O     -2.584394     0.515933    -2.939418
H     -2.060119    -0.294067    -2.948803
H     -3.335830     0.294220    -2.376091
O      1.375739     3.468000    -2.252397
H      1.817015     2.685835    -2.604424
H      0.452519     3.192848    -2.171377
O      1.828315    -4.563635    -0.348768
H      2.289323    -3.719879    -0.250573
H      1.392643    -4.666947     0.506220
